     Program PWSCF v.7.3.1 starts on 29May2025 at 15: 3:27

     Waiting for input...
     Reading input from standard input

     Current dimensions of program PWSCF are:
     Max number of different atomic species (ntypx) = 10
     Max number of k-points (npk) =  40000
     Max angular momentum in pseudopotentials (lmaxx) =  4
     Message from routine setup:
     using ibrav=0 with symmetry is DISCOURAGED, use correct ibrav instead

     K-points division:     npool     =       8
     R & G space division:  proc/nbgrp/npool/nimage =      16
     Subspace diagonalization in iterative solution of the eigenvalue problem:
     one sub-group per band group will be used

     Using Slab Decomposition

     bravais-lattice index     =            0
     lattice parameter (alat)  =      16.2598  a.u.
     unit-cell volume          =    4298.7603 (a.u.)^3
     number of atoms/cell      =           53
     number of atomic types    =            1
     number of electrons       =       848.00
     number of Kohn-Sham states=          509
     kinetic-energy cutoff     =      90.0000  Ry
     charge density cutoff     =    1080.0000  Ry
     scf convergence threshold =      1.0E-08
     mixing beta               =       0.2000
     number of iterations used =            8  plain     mixing
     Exchange-correlation= PBE
                           (   1   4   3   4   0   0   0)

     celldm(1)=  16.259770  celldm(2)=   0.000000  celldm(3)=   0.000000
     celldm(4)=   0.000000  celldm(5)=   0.000000  celldm(6)=   0.000000

     crystal axes: (cart. coord. in units of alat)
               a(1) = (   1.000000   0.000000   0.000000 )
               a(2) = (   0.000000   1.000000   0.000000 )
               a(3) = (   0.000000   0.000000   1.000000 )

     reciprocal axes: (cart. coord. in units 2 pi/alat)
               b(1) = (  1.000000  0.000000  0.000000 )
               b(2) = (  0.000000  1.000000  0.000000 )
               b(3) = (  0.000000  0.000000  1.000000 )

     PseudoPot. # 1 for Fe read from file:
     ./pseudo/Fe.pbe-spn-rrkjus_psl.0.2.1.UPF
     MD5 check sum: f9af58635850a145d9bd408d58feeb93
     Pseudo is Ultrasoft + core correction, Zval = 16.0
     Generated using "atomic" code by A. Dal Corso  v.5.0.2 svn rev. 9415
     Using radial grid of 1191 points,  6 beta functions with:
                l(1) =   0
                l(2) =   0
                l(3) =   1
                l(4) =   1
                l(5) =   2
                l(6) =   2
     Q(r) pseudized with 0 coefficients

     atomic species   valence    mass     pseudopotential
     Fe               16.00    55.84500     Fe( 1.00)

     Starting magnetic structure
     atomic species   magnetization
     Fe              0.400

     48 Sym. Ops., with inversion, found (42 have fractional translation)

                                    s                        frac. trans.

      isym =  1     identity

 cryst.   s( 1) = (     1          0          0      )
                  (     0          1          0      )
                  (     0          0          1      )

 cart.    s( 1) = (  1.0000000  0.0000000  0.0000000 )
                  (  0.0000000  1.0000000  0.0000000 )
                  (  0.0000000  0.0000000  1.0000000 )

      isym =  2     180 deg rotation - cart. axis [0,0,1]

 cryst.   s( 2) = (    -1          0          0      )    f =(  0.3333333 )
                  (     0         -1          0      )       (  0.3333333 )
                  (     0          0          1      )       (  0.0000000 )

 cart.    s( 2) = ( -1.0000000  0.0000000  0.0000000 )    f =(  0.3333333 )
                  (  0.0000000 -1.0000000  0.0000000 )       (  0.3333333 )
                  (  0.0000000  0.0000000  1.0000000 )       (  0.0000000 )

[...]

 cryst.   s( 9) = (     0          0          1      )    f =(  0.0000000 )
                  (     0         -1          0      )       (  0.3333333 )
                  (     1          0          0      )       (  0.0000000 )

 cart.    s( 9) = (  0.0000000  0.0000000  1.0000000 )    f =(  0.0000000 )
                  (  0.0000000 -1.0000000  0.0000000 )       (  0.3333333 )
                  (  1.0000000  0.0000000  0.0000000 )       (  0.0000000 )

[...]

 cryst.   s(10) = (     0          0         -1      )    f =(  0.3333333 )
                  (     0         -1          0      )       (  0.3333333 )
                  (    -1          0          0      )       (  0.3333333 )

 cart.    s(10) = (  0.0000000  0.0000000 -1.0000000 )    f =(  0.3333333 )
                  (  0.0000000 -1.0000000  0.0000000 )       (  0.3333333 )
                  ( -1.0000000  0.0000000  0.0000000 )       (  0.3333333 )

[...]

 cryst.   s(17) = (     0          0          1      )
                  (     1          0          0      )
                  (     0          1          0      )

 cart.    s(17) = (  0.0000000  1.0000000  0.0000000 )
                  (  0.0000000  0.0000000  1.0000000 )
                  (  1.0000000  0.0000000  0.0000000 )

[...]

      isym = 24     120 deg rotation - cart. axis [-1,-1,1]

[...]

      isym = 25     inversion

[...]

      isym = 26     inv. 180 deg rotation - cart. axis [0,0,1]

[...]

 cryst.   s(38) = (     1          0          0      )
                  (     0          0          1      )
                  (     0          1          0      )

 cart.    s(38) = (  1.0000000  0.0000000  0.0000000 )
                  (  0.0000000  0.0000000  1.0000000 )
                  (  0.0000000  1.0000000  0.0000000 )

[...]

      isym = 48     inv. 120 deg rotation - cart. axis [-1,-1,1]

 cryst.   s(48) = (     0         -1          0      )    f =(  0.0000000 )
                  (     0          0          1      )       (  0.3333333 )
                  (     1          0          0      )       (  0.0000000 )

 cart.    s(48) = (  0.0000000  0.0000000  1.0000000 )    f =(  0.0000000 )
                  ( -1.0000000  0.0000000  0.0000000 )       (  0.3333333 )
                  (  0.0000000  1.0000000  0.0000000 )       (  0.0000000 )

   Cartesian axes

     site n.     atom                  positions (alat units)
         1        Fe     tau(   1) = (  -0.0001067  -0.0001067  -0.0001067  )
         2        Fe     tau(   2) = (   0.1719080   0.1719080   0.1719080  )
         3        Fe     tau(   3) = (   0.0011170   0.0011170   0.3333333  )
         4        Fe     tau(   4) = (   0.1719080   0.1719080   0.4947586  )
         5        Fe     tau(   5) = (  -0.0001067  -0.0001067   0.6667733  )
         6        Fe     tau(   6) = (   0.1661891   0.1661891   0.8333333  )
         7        Fe     tau(   7) = (   0.0011170   0.3333333   0.0011170  )
         8        Fe     tau(   8) = (   0.1719080   0.4947586   0.1719080  )
         9        Fe     tau(   9) = (  -0.0042449   0.3333333   0.3333333  )
        10        Fe     tau(  10) = (   0.1719080   0.4947586   0.4947586  )
        11        Fe     tau(  11) = (   0.0011170   0.3333333   0.6655496  )
        12        Fe     tau(  12) = (   0.1661891   0.5004775   0.8333333  )
        13        Fe     tau(  13) = (  -0.0001067   0.6667733  -0.0001067  )
        14        Fe     tau(  14) = (   0.1661891   0.8333333   0.1661891  )
        15        Fe     tau(  15) = (   0.0011170   0.6655496   0.3333333  )
        16        Fe     tau(  16) = (   0.1661891   0.8333333   0.5004775  )
        17        Fe     tau(  17) = (  -0.0001067   0.6667733   0.6667733  )
        18        Fe     tau(  18) = (   0.1676038   0.8333333   0.8333333  )
        19        Fe     tau(  19) = (   0.3333333   0.0011170   0.0011170  )
        20        Fe     tau(  20) = (   0.4947586   0.1719080   0.1719080  )
        21        Fe     tau(  21) = (   0.3333333  -0.0042449   0.3333333  )
        22        Fe     tau(  22) = (   0.4947586   0.1719080   0.4947586  )
        23        Fe     tau(  23) = (   0.3333333   0.0011170   0.6655496  )
        24        Fe     tau(  24) = (   0.5004775   0.1661891   0.8333333  )
        25        Fe     tau(  25) = (   0.3333333   0.3333333  -0.0042449  )
        26        Fe     tau(  26) = (   0.4947586   0.4947586   0.1719080  )
        27        Fe     tau(  27) = (   0.4947586   0.4947586   0.4947586  )
        28        Fe     tau(  28) = (   0.3333333   0.3333333   0.6709116  )
        29        Fe     tau(  29) = (   0.5004775   0.5004775   0.8333333  )
        30        Fe     tau(  30) = (   0.3333333   0.6655496   0.0011170  )
        31        Fe     tau(  31) = (   0.5004775   0.8333333   0.1661891  )
        32        Fe     tau(  32) = (   0.3333333   0.6709116   0.3333333  )
        33        Fe     tau(  33) = (   0.5004775   0.8333333   0.5004775  )
        34        Fe     tau(  34) = (   0.3333333   0.6655496   0.6655496  )
        35        Fe     tau(  35) = (   0.4990629   0.8333333   0.8333333  )
        36        Fe     tau(  36) = (   0.6667733  -0.0001067  -0.0001067  )
        37        Fe     tau(  37) = (   0.8333333   0.1661891   0.1661891  )
        38        Fe     tau(  38) = (   0.6655496   0.0011170   0.3333333  )
        39        Fe     tau(  39) = (   0.8333333   0.1661891   0.5004775  )
        40        Fe     tau(  40) = (   0.6667733  -0.0001067   0.6667733  )
        41        Fe     tau(  41) = (   0.8333333   0.1676038   0.8333333  )
        42        Fe     tau(  42) = (   0.6655496   0.3333333   0.0011170  )
        43        Fe     tau(  43) = (   0.8333333   0.5004775   0.1661891  )
        44        Fe     tau(  44) = (   0.6709116   0.3333333   0.3333333  )
        45        Fe     tau(  45) = (   0.8333333   0.5004775   0.5004775  )
        46        Fe     tau(  46) = (   0.6655496   0.3333333   0.6655496  )
        47        Fe     tau(  47) = (   0.8333333   0.4990629   0.8333333  )
        48        Fe     tau(  48) = (   0.6667733   0.6667733  -0.0001067  )
        49        Fe     tau(  49) = (   0.8333333   0.8333333   0.1676038  )
        50        Fe     tau(  50) = (   0.6655496   0.6655496   0.3333333  )
        51        Fe     tau(  51) = (   0.8333333   0.8333333   0.4990629  )
        52        Fe     tau(  52) = (   0.6667733   0.6667733   0.6667733  )
        53        Fe     tau(  53) = (   0.8333333   0.8333333   0.8333333  )

   Crystallographic axes

     site n.     atom                  positions (cryst. coord.)
         1        Fe     tau(   1) = ( -0.0001067 -0.0001067 -0.0001067  )
         2        Fe     tau(   2) = (  0.1719080  0.1719080  0.1719080  )
         3        Fe     tau(   3) = (  0.0011170  0.0011170  0.3333333  )
         4        Fe     tau(   4) = (  0.1719080  0.1719080  0.4947586  )
         5        Fe     tau(   5) = ( -0.0001067 -0.0001067  0.6667733  )
         6        Fe     tau(   6) = (  0.1661891  0.1661891  0.8333333  )
         7        Fe     tau(   7) = (  0.0011170  0.3333333  0.0011170  )
         8        Fe     tau(   8) = (  0.1719080  0.4947586  0.1719080  )
         9        Fe     tau(   9) = ( -0.0042449  0.3333333  0.3333333  )
        10        Fe     tau(  10) = (  0.1719080  0.4947586  0.4947586  )
[...]
     atom   36 type  1   force =     2.17395507   -2.17395507   -2.17395507
     atom   37 type  1   force =     0.00000000   -0.99664089   -0.99664089
     atom   38 type  1   force =     3.18771319   -3.18771319    0.00000000
     atom   39 type  1   force =     0.00000000   -0.99664089    0.99664089
     atom   40 type  1   force =     2.17395507   -2.17395507    2.17395507
     atom   41 type  1   force =    -0.00000000   -1.07490831   -0.00000000
     atom   42 type  1   force =     3.18771319    0.00000000   -3.18771319
     atom   43 type  1   force =     0.00000000    0.99664089   -0.99664089
     atom   44 type  1   force =    11.60327248    0.00000000    0.00000000
     atom   45 type  1   force =     0.00000000    0.99664089    0.99664089
     atom   46 type  1   force =     3.18771319    0.00000000    3.18771319
     atom   47 type  1   force =     0.00000000    1.07490831    0.00000000
     atom   48 type  1   force =     2.17395507    2.17395507   -2.17395507
     atom   49 type  1   force =     0.00000000    0.00000000   -1.07490831
     atom   50 type  1   force =     3.18771319    3.18771319    0.00000000
     atom   51 type  1   force =     0.00000000    0.00000000    1.07490831
     atom   52 type  1   force =     2.17395507    2.17395507    2.17395507
     atom   53 type  1   force =     0.00000000    0.00000000    0.00000000
     The core correction contribution to forces
     atom    1 type  1   force =     0.00057334    0.00057334    0.00057334
     atom    2 type  1   force =     0.00123366    0.00123366    0.00123366
     atom    3 type  1   force =     0.00046410    0.00046410   -0.00000000
     atom    4 type  1   force =     0.00123366    0.00123366   -0.00123366
     atom    5 type  1   force =     0.00057334    0.00057334   -0.00057334
     atom    6 type  1   force =    -0.00002308   -0.00002308    0.00000000
     atom    7 type  1   force =     0.00046410   -0.00000000    0.00046410
     atom    8 type  1   force =     0.00123366   -0.00123366    0.00123366
     atom    9 type  1   force =    -0.00162182   -0.00000000   -0.00000000
     atom   10 type  1   force =     0.00123366   -0.00123366   -0.00123366
     atom   11 type  1   force =     0.00046410   -0.00000000   -0.00046410
     atom   12 type  1   force =    -0.00002308    0.00002308    0.00000000
     atom   13 type  1   force =     0.00057334   -0.00057334    0.00057334
     atom   14 type  1   force =    -0.00002308    0.00000000   -0.00002308
     atom   15 type  1   force =     0.00046410   -0.00046410   -0.00000000
     atom   16 type  1   force =    -0.00002308    0.00000000    0.00002308
     atom   17 type  1   force =     0.00057334   -0.00057334   -0.00057334
     atom   18 type  1   force =    -0.00002684    0.00000000    0.00000000
     atom   19 type  1   force =    -0.00000000    0.00046410    0.00046410
     atom   20 type  1   force =    -0.00123366    0.00123366    0.00123366
     atom   21 type  1   force =     0.00000000   -0.00162182   -0.00000000
     atom   22 type  1   force =    -0.00123366    0.00123366   -0.00123366
     atom   23 type  1   force =    -0.00000000    0.00046410   -0.00046410
     atom   24 type  1   force =     0.00002308   -0.00002308    0.00000000
     atom   25 type  1   force =    -0.00000000   -0.00000000   -0.00162182
     atom   26 type  1   force =    -0.00123366   -0.00123366    0.00123366
     atom   27 type  1   force =    -0.00123366   -0.00123366   -0.00123366
     atom   28 type  1   force =    -0.00000000   -0.00000000    0.00162182
     atom   29 type  1   force =     0.00002308    0.00002308    0.00000000
     atom   30 type  1   force =    -0.00000000   -0.00046410    0.00046410
     atom   31 type  1   force =     0.00002308    0.00000000   -0.00002308
     atom   32 type  1   force =    -0.00000000    0.00162182   -0.00000000
     atom   33 type  1   force =     0.00002308    0.00000000    0.00002308
     atom   34 type  1   force =    -0.00000000   -0.00046410   -0.00046410
     atom   35 type  1   force =     0.00002684    0.00000000    0.00000000
     atom   36 type  1   force =    -0.00057334    0.00057334    0.00057334
     atom   37 type  1   force =     0.00000000   -0.00002308   -0.00002308
     atom   38 type  1   force =    -0.00046410    0.00046410   -0.00000000
     atom   39 type  1   force =     0.00000000   -0.00002308    0.00002308
     atom   40 type  1   force =    -0.00057334    0.00057334   -0.00057334
     atom   41 type  1   force =     0.00000000   -0.00002684    0.00000000
     atom   42 type  1   force =    -0.00046410   -0.00000000    0.00046410
     atom   43 type  1   force =     0.00000000    0.00002308   -0.00002308
     atom   44 type  1   force =     0.00162182    0.00000000   -0.00000000
     atom   45 type  1   force =     0.00000000    0.00002308    0.00002308
     atom   46 type  1   force =    -0.00046410   -0.00000000   -0.00046410
     atom   47 type  1   force =     0.00000000    0.00002684    0.00000000
     atom   48 type  1   force =    -0.00057334   -0.00057334    0.00057334
     atom   49 type  1   force =     0.00000000    0.00000000   -0.00002684
     atom   50 type  1   force =    -0.00046410   -0.00046410   -0.00000000
     atom   51 type  1   force =     0.00000000    0.00000000    0.00002684
     atom   52 type  1   force =    -0.00057334   -0.00057334   -0.00057334
     atom   53 type  1   force =     0.00000000    0.00000000    0.00000000
     The Hubbard contrib.    to forces
     atom    1 type  1   force =     0.00000000    0.00000000    0.00000000
     atom    2 type  1   force =     0.00000000    0.00000000    0.00000000
     atom    3 type  1   force =     0.00000000    0.00000000    0.00000000
     atom    4 type  1   force =     0.00000000    0.00000000    0.00000000
     atom    5 type  1   force =     0.00000000    0.00000000    0.00000000
     atom    6 type  1   force =     0.00000000    0.00000000    0.00000000
     atom    7 type  1   force =     0.00000000    0.00000000    0.00000000
     atom    8 type  1   force =     0.00000000    0.00000000    0.00000000
     atom    9 type  1   force =     0.00000000    0.00000000    0.00000000
     atom   10 type  1   force =     0.00000000    0.00000000    0.00000000
     atom   11 type  1   force =     0.00000000    0.00000000    0.00000000
     atom   12 type  1   force =     0.00000000    0.00000000    0.00000000
     atom   13 type  1   force =     0.00000000    0.00000000    0.00000000
     atom   14 type  1   force =     0.00000000    0.00000000    0.00000000
     atom   15 type  1   force =     0.00000000    0.00000000    0.00000000
     atom   16 type  1   force =     0.00000000    0.00000000    0.00000000
     atom   17 type  1   force =     0.00000000    0.00000000    0.00000000
     atom   18 type  1   force =     0.00000000    0.00000000    0.00000000
     atom   19 type  1   force =     0.00000000    0.00000000    0.00000000
     atom   20 type  1   force =     0.00000000    0.00000000    0.00000000
     atom   21 type  1   force =     0.00000000    0.00000000    0.00000000
     atom   22 type  1   force =     0.00000000    0.00000000    0.00000000
     atom   23 type  1   force =     0.00000000    0.00000000    0.00000000
     atom   24 type  1   force =     0.00000000    0.00000000    0.00000000
     atom   25 type  1   force =     0.00000000    0.00000000    0.00000000
     atom   26 type  1   force =     0.00000000    0.00000000    0.00000000
     atom   27 type  1   force =     0.00000000    0.00000000    0.00000000
     atom   28 type  1   force =     0.00000000    0.00000000    0.00000000
     atom   29 type  1   force =     0.00000000    0.00000000    0.00000000
     atom   30 type  1   force =     0.00000000    0.00000000    0.00000000
     atom   31 type  1   force =     0.00000000    0.00000000    0.00000000
     atom   32 type  1   force =     0.00000000    0.00000000    0.00000000
     atom   33 type  1   force =     0.00000000    0.00000000    0.00000000
     atom   34 type  1   force =     0.00000000    0.00000000    0.00000000
     atom   35 type  1   force =     0.00000000    0.00000000    0.00000000
     atom   36 type  1   force =     0.00000000    0.00000000    0.00000000
     atom   37 type  1   force =     0.00000000    0.00000000    0.00000000
     atom   38 type  1   force =     0.00000000    0.00000000    0.00000000
     atom   39 type  1   force =     0.00000000    0.00000000    0.00000000
     atom   40 type  1   force =     0.00000000    0.00000000    0.00000000
     atom   41 type  1   force =     0.00000000    0.00000000    0.00000000
     atom   42 type  1   force =     0.00000000    0.00000000    0.00000000
     atom   43 type  1   force =     0.00000000    0.00000000    0.00000000
     atom   44 type  1   force =     0.00000000    0.00000000    0.00000000
     atom   45 type  1   force =     0.00000000    0.00000000    0.00000000
     atom   46 type  1   force =     0.00000000    0.00000000    0.00000000
     atom   47 type  1   force =     0.00000000    0.00000000    0.00000000
     atom   48 type  1   force =     0.00000000    0.00000000    0.00000000
     atom   49 type  1   force =     0.00000000    0.00000000    0.00000000
     atom   50 type  1   force =     0.00000000    0.00000000    0.00000000
     atom   51 type  1   force =     0.00000000    0.00000000    0.00000000
     atom   52 type  1   force =     0.00000000    0.00000000    0.00000000
     atom   53 type  1   force =     0.00000000    0.00000000    0.00000000
     The SCF correction term to forces
     atom    1 type  1   force =     0.00006208    0.00006208    0.00006208
     atom    2 type  1   force =    -0.00000757   -0.00000757   -0.00000757
     atom    3 type  1   force =     0.00000320    0.00000320    0.00000000
     atom    4 type  1   force =    -0.00000757   -0.00000757    0.00000757
     atom    5 type  1   force =     0.00006208    0.00006208   -0.00006208
     atom    6 type  1   force =     0.00002532    0.00002532    0.00000000
     atom    7 type  1   force =     0.00000320   -0.00000000    0.00000320
     atom    8 type  1   force =    -0.00000757    0.00000757   -0.00000757
     atom    9 type  1   force =    -0.00000086   -0.00000000    0.00000000
     atom   10 type  1   force =    -0.00000757    0.00000757    0.00000757
     atom   11 type  1   force =     0.00000320    0.00000000   -0.00000320
     atom   12 type  1   force =     0.00002532   -0.00002532   -0.00000000
     atom   13 type  1   force =     0.00006208   -0.00006208    0.00006208
     atom   14 type  1   force =     0.00002532   -0.00000000    0.00002532
     atom   15 type  1   force =     0.00000320   -0.00000320    0.00000000
     atom   16 type  1   force =     0.00002532   -0.00000000   -0.00002532
     atom   17 type  1   force =     0.00006208   -0.00006208   -0.00006208
     atom   18 type  1   force =     0.00009998   -0.00000000    0.00000000
     atom   19 type  1   force =     0.00000000    0.00000320    0.00000320
     atom   20 type  1   force =     0.00000757   -0.00000757   -0.00000757
     atom   21 type  1   force =     0.00000000   -0.00000086    0.00000000
     atom   22 type  1   force =     0.00000757   -0.00000757    0.00000757
     atom   23 type  1   force =    -0.00000000    0.00000320   -0.00000320
     atom   24 type  1   force =    -0.00002532    0.00002532    0.00000000
     atom   25 type  1   force =     0.00000000    0.00000000   -0.00000086
     atom   26 type  1   force =     0.00000757    0.00000757   -0.00000757
     atom   27 type  1   force =     0.00000757    0.00000757    0.00000757
     atom   28 type  1   force =     0.00000000   -0.00000000    0.00000086
     atom   29 type  1   force =    -0.00002532   -0.00002532    0.00000000
     atom   30 type  1   force =    -0.00000000   -0.00000320    0.00000320
     atom   31 type  1   force =    -0.00002532   -0.00000000    0.00002532
     atom   32 type  1   force =    -0.00000000    0.00000086   -0.00000000
     atom   33 type  1   force =    -0.00002532   -0.00000000   -0.00002532
     atom   34 type  1   force =    -0.00000000   -0.00000320   -0.00000320
     atom   35 type  1   force =    -0.00009998    0.00000000   -0.00000000
     atom   36 type  1   force =    -0.00006208    0.00006208    0.00006208
     atom   37 type  1   force =     0.00000000    0.00002532    0.00002532
     atom   38 type  1   force =    -0.00000320    0.00000320    0.00000000
     atom   39 type  1   force =     0.00000000    0.00002532   -0.00002532
     atom   40 type  1   force =    -0.00006208    0.00006208   -0.00006208
     atom   41 type  1   force =    -0.00000000    0.00009998    0.00000000
     atom   42 type  1   force =    -0.00000320   -0.00000000    0.00000320
     atom   43 type  1   force =    -0.00000000   -0.00002532    0.00002532
     atom   44 type  1   force =     0.00000086   -0.00000000   -0.00000000
     atom   45 type  1   force =    -0.00000000   -0.00002532   -0.00002532
     atom   46 type  1   force =    -0.00000320   -0.00000000   -0.00000320
     atom   47 type  1   force =    -0.00000000   -0.00009998   -0.00000000
     atom   48 type  1   force =    -0.00006208   -0.00006208    0.00006208
     atom   49 type  1   force =     0.00000000   -0.00000000    0.00009998
     atom   50 type  1   force =    -0.00000320   -0.00000320   -0.00000000
     atom   51 type  1   force =    -0.00000000   -0.00000000   -0.00009998
     atom   52 type  1   force =    -0.00006208   -0.00006208   -0.00006208
     atom   53 type  1   force =    -0.00000000    0.00000000   -0.00000000

     Total force =     0.001169     Total SCF correction =     0.000412
     SCF correction compared to forces is large: reduce conv_thr to get better values

     Computing stress (Cartesian axis) and pressure

     negative rho (up, down):  0.000E+00 1.707E-03
          total   stress  (Ry/bohr**3)                   (kbar)     P=      -70.14
  -0.00047680   0.00000000   0.00000000          -70.14        0.00        0.00
   0.00000000  -0.00047680   0.00000000            0.00      -70.14        0.00
   0.00000000   0.00000000  -0.00047680            0.00        0.00      -70.14

     kinetic stress (kbar)  76979.05      0.00      0.00
                                0.00  76979.05      0.00
                                0.00      0.00  76979.05

     local   stress (kbar)  62765.09     -0.00      0.00
                               -0.00  62765.09     -0.00
                                0.00     -0.00  62765.09

     nonloc. stress (kbar) -60116.86      0.00      0.00
                                0.00 -60116.86      0.00
                                0.00      0.00 -60116.86

     hartree stress (kbar)  41252.27     -0.00     -0.00
                               -0.00  41252.27      0.00
                               -0.00      0.00  41252.27

     exc-cor stress (kbar)  -2451.54      0.00     -0.00
                                0.00  -2451.54      0.00
                               -0.00      0.00  -2451.54

     corecor stress (kbar) -15817.98      0.00      0.00
                                0.00 -15817.98     -0.00
                                0.00     -0.00 -15817.98

     ewald   stress (kbar)-102680.16     -0.00     -0.00
                               -0.00-102680.16     -0.00
                               -0.00     -0.00-102680.16

     hubbard stress (kbar)      0.00      0.00      0.00
                                0.00      0.00      0.00
                                0.00      0.00      0.00

     DFT-D   stress (kbar)      0.00      0.00      0.00
                                0.00      0.00      0.00
                                0.00      0.00      0.00

     XDM     stress (kbar)      0.00      0.00      0.00
                                0.00      0.00      0.00
                                0.00      0.00      0.00

     dft-nl  stress (kbar)      0.00      0.00      0.00
                                0.00      0.00      0.00
                                0.00      0.00      0.00

     TS-vdW  stress (kbar)      0.00      0.00      0.00
                                0.00      0.00      0.00
                                0.00      0.00      0.00

     MDB     stress (kbar)      0.00      0.00      0.00
                                0.00      0.00      0.00
                                0.00      0.00      0.00

     3D-RISM stress (kbar)      0.00      0.00      0.00
                                0.00      0.00      0.00
                                0.00      0.00      0.00

     Message from routine punch:
     Nothing written, as per user request (disk_io='none')

     General routines

     Parallel routines

   This run was terminated on:  17:43:33  29May2025

   JOB DONE.