     Program PWSCF v.7.3.1 starts on  3Jun2025 at 17:44: 9

     Waiting for input...
     Reading input from standard input

     Current dimensions of program PWSCF are:
     Max number of different atomic species (ntypx) = 10
     Max number of k-points (npk) =  40000
     Max angular momentum in pseudopotentials (lmaxx) =  4
     file Fe.pbe-spn-kjpaw_psl.1.0.0.UPF: wavefunction(s)  3P 3D renormalized
     Found identity + (  0.1667  0.1667  0.1667) symmetry
     This is a supercell, fractional translations are disabled
     Message from routine setup:
     using ibrav=0 with symmetry is DISCOURAGED, use correct ibrav instead

     K-points division:     npool     =       8
     R & G space division:  proc/nbgrp/npool/nimage =      16
     Subspace diagonalization in iterative solution of the eigenvalue problem:
     one sub-group per band group will be used

     Using Slab Decomposition

     bravais-lattice index     =            0
     lattice parameter (alat)  =      16.2598  a.u.
     unit-cell volume          =    4298.7603 (a.u.)^3
     number of atoms/cell      =           54
     number of atomic types    =            1
     number of electrons       =       864.00
     number of Kohn-Sham states=          518
     kinetic-energy cutoff     =      90.0000  Ry
     charge density cutoff     =    1080.0000  Ry
     scf convergence threshold =      1.0E-08
     mixing beta               =       0.2000
     number of iterations used =            8  plain     mixing
     energy convergence thresh.=      1.0E-04
     force convergence thresh. =      1.0E-03
     Exchange-correlation= SLA  PW   PBX  PBC
                           (   1   4   3   4   0   0   0)
     nstep                     =           50

     celldm(1)=  16.259770  celldm(2)=   0.000000  celldm(3)=   0.000000
     celldm(4)=   0.000000  celldm(5)=   0.000000  celldm(6)=   0.000000

     crystal axes: (cart. coord. in units of alat)
               a(1) = (   1.000000   0.000000   0.000000 )
               a(2) = (   0.000000   1.000000   0.000000 )
               a(3) = (   0.000000   0.000000   1.000000 )

     reciprocal axes: (cart. coord. in units 2 pi/alat)
               b(1) = (  1.000000  0.000000  0.000000 )
               b(2) = (  0.000000  1.000000  0.000000 )
               b(3) = (  0.000000  0.000000  1.000000 )

     PseudoPot. # 1 for Fe read from file:
     ./pseudo/Fe.pbe-spn-kjpaw_psl.1.0.0.UPF
     MD5 check sum: fc81f059e5c5069939230b1155715ae8
     Pseudo is Projector augmented-wave + core cor, Zval = 16.0
     Generated using &quot;atomic&quot; code by A. Dal Corso  v.6.3
     Shape of augmentation charge: PSQ
     Using radial grid of 1191 points,  6 beta functions with:
                l(1) =   0
                l(2) =   0
                l(3) =   1
                l(4) =   1
                l(5) =   2
                l(6) =   2
     Q(r) pseudized with 0 coefficients

     atomic species   valence    mass     pseudopotential
     Fe               16.00    55.84500     Fe( 1.00)

     48 Sym. Ops., with inversion, found

                                    s                        frac. trans.

      isym =  1     identity

 cryst.   s( 1) = (     1          0          0      )
                  (     0          1          0      )
                  (     0          0          1      )

 cart.    s( 1) = (  1.0000000  0.0000000  0.0000000 )
                  (  0.0000000  1.0000000  0.0000000 )
                  (  0.0000000  0.0000000  1.0000000 )

      isym =  2     180 deg rotation - cart. axis [0,0,1]

[...]

 cryst.   s( 9) = (     0          0          1      )
                  (     0         -1          0      )
                  (     1          0          0      )

 cart.    s( 9) = (  0.0000000  0.0000000  1.0000000 )
                  (  0.0000000 -1.0000000  0.0000000 )
                  (  1.0000000  0.0000000  0.0000000 )

[...]

 cryst.   s(10) = (     0          0         -1      )
                  (     0         -1          0      )
                  (    -1          0          0      )

 cart.    s(10) = (  0.0000000  0.0000000 -1.0000000 )
                  (  0.0000000 -1.0000000  0.0000000 )
                  ( -1.0000000  0.0000000  0.0000000 )

[...]

      isym = 24     120 deg rotation - cart. axis [-1,-1,1]

[...]

      isym = 25     inversion

[...]

      isym = 26     inv. 180 deg rotation - cart. axis [0,0,1]

[...]

      isym = 48     inv. 120 deg rotation - cart. axis [-1,-1,1]

 cryst.   s(48) = (     0         -1          0      )
                  (     0          0          1      )
                  (     1          0          0      )

 cart.    s(48) = (  0.0000000  0.0000000  1.0000000 )
                  ( -1.0000000  0.0000000  0.0000000 )
                  (  0.0000000  1.0000000  0.0000000 )

   Cartesian axes

     site n.     atom                  positions (alat units)
         1        Fe     tau(   1) = (   0.0000000   0.0000000   0.0000000  )
         2        Fe     tau(   2) = (   0.1666667   0.1666667   0.1666667  )
         3        Fe     tau(   3) = (   0.0000000   0.0000000   0.3333333  )
         4        Fe     tau(   4) = (   0.1666667   0.1666667   0.5000000  )
         5        Fe     tau(   5) = (   0.0000000   0.0000000   0.6666667  )
         6        Fe     tau(   6) = (   0.1666667   0.1666667   0.8333333  )
         7        Fe     tau(   7) = (   0.0000000   0.3333333   0.0000000  )
         8        Fe     tau(   8) = (   0.1666667   0.5000000   0.1666667  )
         9        Fe     tau(   9) = (   0.0000000   0.3333333   0.3333333  )
        10        Fe     tau(  10) = (   0.1666667   0.5000000   0.5000000  )
        11        Fe     tau(  11) = (   0.0000000   0.3333333   0.6666667  )
        12        Fe     tau(  12) = (   0.1666667   0.5000000   0.8333333  )
        13        Fe     tau(  13) = (   0.0000000   0.6666667   0.0000000  )
        14        Fe     tau(  14) = (   0.1666667   0.8333333   0.1666667  )
        15        Fe     tau(  15) = (   0.0000000   0.6666667   0.3333333  )
        16        Fe     tau(  16) = (   0.1666667   0.8333333   0.5000000  )
        17        Fe     tau(  17) = (   0.0000000   0.6666667   0.6666667  )
        18        Fe     tau(  18) = (   0.1666667   0.8333333   0.8333333  )
        19        Fe     tau(  19) = (   0.3333333   0.0000000   0.0000000  )
        20        Fe     tau(  20) = (   0.5000000   0.1666667   0.1666667  )
        21        Fe     tau(  21) = (   0.3333333   0.0000000   0.3333333  )
        22        Fe     tau(  22) = (   0.5000000   0.1666667   0.5000000  )
        23        Fe     tau(  23) = (   0.3333333   0.0000000   0.6666667  )
        24        Fe     tau(  24) = (   0.5000000   0.1666667   0.8333333  )
        25        Fe     tau(  25) = (   0.3333333   0.3333333   0.0000000  )
        26        Fe     tau(  26) = (   0.5000000   0.5000000   0.1666667  )
        27        Fe     tau(  27) = (   0.3333333   0.3333333   0.3333333  )
        28        Fe     tau(  28) = (   0.5000000   0.5000000   0.5000000  )
        29        Fe     tau(  29) = (   0.3333333   0.3333333   0.6666667  )
        30        Fe     tau(  30) = (   0.5000000   0.5000000   0.8333333  )
        31        Fe     tau(  31) = (   0.3333333   0.6666667   0.0000000  )
        32        Fe     tau(  32) = (   0.5000000   0.8333333   0.1666667  )
        33        Fe     tau(  33) = (   0.3333333   0.6666667   0.3333333  )
        34        Fe     tau(  34) = (   0.5000000   0.8333333   0.5000000  )
        35        Fe     tau(  35) = (   0.3333333   0.6666667   0.6666667  )
        36        Fe     tau(  36) = (   0.5000000   0.8333333   0.8333333  )
        37        Fe     tau(  37) = (   0.6666667   0.0000000   0.0000000  )
        38        Fe     tau(  38) = (   0.8333333   0.1666667   0.1666667  )
        39        Fe     tau(  39) = (   0.6666667   0.0000000   0.3333333  )
        40        Fe     tau(  40) = (   0.8333333   0.1666667   0.5000000  )
        41        Fe     tau(  41) = (   0.6666667   0.0000000   0.6666667  )
        42        Fe     tau(  42) = (   0.8333333   0.1666667   0.8333333  )
        43        Fe     tau(  43) = (   0.6666667   0.3333333   0.0000000  )
        44        Fe     tau(  44) = (   0.8333333   0.5000000   0.1666667  )
        45        Fe     tau(  45) = (   0.6666667   0.3333333   0.3333333  )
        46        Fe     tau(  46) = (   0.8333333   0.5000000   0.5000000  )
        47        Fe     tau(  47) = (   0.6666667   0.3333333   0.6666667  )
        48        Fe     tau(  48) = (   0.8333333   0.5000000   0.8333333  )
        49        Fe     tau(  49) = (   0.6666667   0.6666667   0.0000000  )
        50        Fe     tau(  50) = (   0.8333333   0.8333333   0.1666667  )
        51        Fe     tau(  51) = (   0.6666667   0.6666667   0.3333333  )
        52        Fe     tau(  52) = (   0.8333333   0.8333333   0.5000000  )
        53        Fe     tau(  53) = (   0.6666667   0.6666667   0.6666667  )
        54        Fe     tau(  54) = (   0.8333333   0.8333333   0.8333333  )

   Crystallographic axes

     site n.     atom                  positions (cryst. coord.)
         1        Fe     tau(   1) = (  0.0000000  0.0000000  0.0000000  )
         2        Fe     tau(   2) = (  0.1666667  0.1666667  0.1666667  )
         3        Fe     tau(   3) = (  0.0000000  0.0000000  0.3333333  )
         4        Fe     tau(   4) = (  0.1666667  0.1666667  0.5000000  )
         5        Fe     tau(   5) = (  0.0000000  0.0000000  0.6666667  )
         6        Fe     tau(   6) = (  0.1666667  0.1666667  0.8333333  )
         7        Fe     tau(   7) = (  0.0000000  0.3333333  0.0000000  )
         8        Fe     tau(   8) = (  0.1666667  0.5000000  0.1666667  )
         9        Fe     tau(   9) = (  0.0000000  0.3333333  0.3333333  )
        10        Fe     tau(  10) = (  0.1666667  0.5000000  0.5000000  )
        11        Fe     tau(  11) = (  0.0000000  0.3333333  0.6666667  )
        12        Fe     tau(  12) = (  0.1666667  0.5000000  0.8333333  )
        13        Fe     tau(  13) = (  0.0000000  0.6666667  0.0000000  )
        14        Fe     tau(  14) = (  0.1666667  0.8333333  0.1666667  )
        15        Fe     tau(  15) = (  0.0000000  0.6666667  0.3333333  )
        16        Fe     tau(  16) = (  0.1666667  0.8333333  0.5000000  )
        17        Fe     tau(  17) = (  0.0000000  0.6666667  0.6666667  )
        18        Fe     tau(  18) = (  0.1666667  0.8333333  0.8333333  )
        19        Fe     tau(  19) = (  0.3333333  0.0000000  0.0000000  )
        20        Fe     tau(  20) = (  0.5000000  0.1666667  0.1666667  )
        21        Fe     tau(  21) = (  0.3333333  0.0000000  0.3333333  )
        22        Fe     tau(  22) = (  0.5000000  0.1666667  0.5000000  )
        23        Fe     tau(  23) = (  0.3333333  0.0000000  0.6666667  )
        24        Fe     tau(  24) = (  0.5000000  0.1666667  0.8333333  )
        25        Fe     tau(  25) = (  0.3333333  0.3333333  0.0000000  )
        26        Fe     tau(  26) = (  0.5000000  0.5000000  0.1666667  )
[...]
     atom   40 type  1   force =     0.00000020   -0.00000020   -0.00000000
     atom   41 type  1   force =     0.00000003    0.00000000    0.00000003
     atom   42 type  1   force =     0.00000013   -0.00000013    0.00000013
     atom   43 type  1   force =     0.00000003   -0.00000003    0.00000000
     atom   44 type  1   force =     0.00000020   -0.00000000   -0.00000020
     atom   45 type  1   force =     0.00000015   -0.00000015   -0.00000015
     atom   46 type  1   force =     0.00000030   -0.00000000   -0.00000000
     atom   47 type  1   force =     0.00000015   -0.00000015    0.00000015
     atom   48 type  1   force =     0.00000020   -0.00000000    0.00000020
     atom   49 type  1   force =     0.00000003    0.00000003    0.00000000
     atom   50 type  1   force =     0.00000013    0.00000013   -0.00000013
     atom   51 type  1   force =     0.00000015    0.00000015   -0.00000015
     atom   52 type  1   force =     0.00000020    0.00000020   -0.00000000
     atom   53 type  1   force =     0.00000015    0.00000015    0.00000015
     atom   54 type  1   force =     0.00000013    0.00000013    0.00000013
     The Hubbard contrib.    to forces
     atom    1 type  1   force =     0.00000000    0.00000000    0.00000000
     atom    2 type  1   force =     0.00000000    0.00000000    0.00000000
     atom    3 type  1   force =     0.00000000    0.00000000    0.00000000
     atom    4 type  1   force =     0.00000000    0.00000000    0.00000000
     atom    5 type  1   force =     0.00000000    0.00000000    0.00000000
     atom    6 type  1   force =     0.00000000    0.00000000    0.00000000
     atom    7 type  1   force =     0.00000000    0.00000000    0.00000000
     atom    8 type  1   force =     0.00000000    0.00000000    0.00000000
     atom    9 type  1   force =     0.00000000    0.00000000    0.00000000
     atom   10 type  1   force =     0.00000000    0.00000000    0.00000000
     atom   11 type  1   force =     0.00000000    0.00000000    0.00000000
     atom   12 type  1   force =     0.00000000    0.00000000    0.00000000
     atom   13 type  1   force =     0.00000000    0.00000000    0.00000000
     atom   14 type  1   force =     0.00000000    0.00000000    0.00000000
     atom   15 type  1   force =     0.00000000    0.00000000    0.00000000
     atom   16 type  1   force =     0.00000000    0.00000000    0.00000000
     atom   17 type  1   force =     0.00000000    0.00000000    0.00000000
     atom   18 type  1   force =     0.00000000    0.00000000    0.00000000
     atom   19 type  1   force =     0.00000000    0.00000000    0.00000000
     atom   20 type  1   force =     0.00000000    0.00000000    0.00000000
     atom   21 type  1   force =     0.00000000    0.00000000    0.00000000
     atom   22 type  1   force =     0.00000000    0.00000000    0.00000000
     atom   23 type  1   force =     0.00000000    0.00000000    0.00000000
     atom   24 type  1   force =     0.00000000    0.00000000    0.00000000
     atom   25 type  1   force =     0.00000000    0.00000000    0.00000000
     atom   26 type  1   force =     0.00000000    0.00000000    0.00000000
     atom   27 type  1   force =     0.00000000    0.00000000    0.00000000
     atom   28 type  1   force =     0.00000000    0.00000000    0.00000000
     atom   29 type  1   force =     0.00000000    0.00000000    0.00000000
     atom   30 type  1   force =     0.00000000    0.00000000    0.00000000
     atom   31 type  1   force =     0.00000000    0.00000000    0.00000000
     atom   32 type  1   force =     0.00000000    0.00000000    0.00000000
     atom   33 type  1   force =     0.00000000    0.00000000    0.00000000
     atom   34 type  1   force =     0.00000000    0.00000000    0.00000000
     atom   35 type  1   force =     0.00000000    0.00000000    0.00000000
     atom   36 type  1   force =     0.00000000    0.00000000    0.00000000
     atom   37 type  1   force =     0.00000000    0.00000000    0.00000000
     atom   38 type  1   force =     0.00000000    0.00000000    0.00000000
     atom   39 type  1   force =     0.00000000    0.00000000    0.00000000
     atom   40 type  1   force =     0.00000000    0.00000000    0.00000000
     atom   41 type  1   force =     0.00000000    0.00000000    0.00000000
     atom   42 type  1   force =     0.00000000    0.00000000    0.00000000
     atom   43 type  1   force =     0.00000000    0.00000000    0.00000000
     atom   44 type  1   force =     0.00000000    0.00000000    0.00000000
     atom   45 type  1   force =     0.00000000    0.00000000    0.00000000
     atom   46 type  1   force =     0.00000000    0.00000000    0.00000000
     atom   47 type  1   force =     0.00000000    0.00000000    0.00000000
     atom   48 type  1   force =     0.00000000    0.00000000    0.00000000
     atom   49 type  1   force =     0.00000000    0.00000000    0.00000000
     atom   50 type  1   force =     0.00000000    0.00000000    0.00000000
     atom   51 type  1   force =     0.00000000    0.00000000    0.00000000
     atom   52 type  1   force =     0.00000000    0.00000000    0.00000000
     atom   53 type  1   force =     0.00000000    0.00000000    0.00000000
     atom   54 type  1   force =     0.00000000    0.00000000    0.00000000
     The SCF correction term to forces
     atom    1 type  1   force =    -0.00000000    0.00000000   -0.00000000
     atom    2 type  1   force =     0.00001694    0.00001694    0.00001694
     atom    3 type  1   force =     0.00000000   -0.00000000    0.00001387
     atom    4 type  1   force =     0.00001677    0.00001677    0.00000000
     atom    5 type  1   force =     0.00000000   -0.00000000   -0.00001387
     atom    6 type  1   force =     0.00001694    0.00001694   -0.00001694
     atom    7 type  1   force =    -0.00000000    0.00001387   -0.00000000
     atom    8 type  1   force =     0.00001677    0.00000000    0.00001677
     atom    9 type  1   force =     0.00000000    0.00001503    0.00001503
     atom   10 type  1   force =     0.00001595    0.00000000    0.00000000
     atom   11 type  1   force =     0.00000000    0.00001503   -0.00001503
     atom   12 type  1   force =     0.00001677   -0.00000000   -0.00001677
     atom   13 type  1   force =    -0.00000000   -0.00001387   -0.00000000
     atom   14 type  1   force =     0.00001694   -0.00001694    0.00001694
     atom   15 type  1   force =     0.00000000   -0.00001503    0.00001503
     atom   16 type  1   force =     0.00001677   -0.00001677    0.00000000
     atom   17 type  1   force =     0.00000000   -0.00001503   -0.00001503
     atom   18 type  1   force =     0.00001694   -0.00001694   -0.00001694
     atom   19 type  1   force =     0.00001387    0.00000000   -0.00000000
     atom   20 type  1   force =     0.00000000    0.00001677    0.00001677
     atom   21 type  1   force =     0.00001503    0.00000000    0.00001503
     atom   22 type  1   force =     0.00000000    0.00001595    0.00000000
     atom   23 type  1   force =     0.00001503    0.00000000   -0.00001503
     atom   24 type  1   force =    -0.00000000    0.00001677   -0.00001677
     atom   25 type  1   force =     0.00001503    0.00001503   -0.00000000
     atom   26 type  1   force =     0.00000000    0.00000000    0.00001595
     atom   27 type  1   force =     0.00000782    0.00000782    0.00000782
     atom   28 type  1   force =     0.00000000    0.00000000    0.00000000
     atom   29 type  1   force =     0.00000782    0.00000782   -0.00000782
     atom   30 type  1   force =    -0.00000000    0.00000000   -0.00001595
     atom   31 type  1   force =     0.00001503   -0.00001503   -0.00000000
     atom   32 type  1   force =     0.00000000   -0.00001677    0.00001677
     atom   33 type  1   force =     0.00000782   -0.00000782    0.00000782
     atom   34 type  1   force =     0.00000000   -0.00001595    0.00000000
     atom   35 type  1   force =     0.00000782   -0.00000782   -0.00000782
     atom   36 type  1   force =    -0.00000000   -0.00001677   -0.00001677
     atom   37 type  1   force =    -0.00001387   -0.00000000    0.00000000
     atom   38 type  1   force =    -0.00001694    0.00001694    0.00001694
     atom   39 type  1   force =    -0.00001503   -0.00000000    0.00001503
     atom   40 type  1   force =    -0.00001677    0.00001677    0.00000000
     atom   41 type  1   force =    -0.00001503    0.00000000   -0.00001503
     atom   42 type  1   force =    -0.00001694    0.00001694   -0.00001694
     atom   43 type  1   force =    -0.00001503    0.00001503    0.00000000
     atom   44 type  1   force =    -0.00001677   -0.00000000    0.00001677
     atom   45 type  1   force =    -0.00000782    0.00000782    0.00000782
     atom   46 type  1   force =    -0.00001595    0.00000000    0.00000000
     atom   47 type  1   force =    -0.00000782    0.00000782   -0.00000782
     atom   48 type  1   force =    -0.00001677   -0.00000000   -0.00001677
     atom   49 type  1   force =    -0.00001503   -0.00001503    0.00000000
     atom   50 type  1   force =    -0.00001694   -0.00001694    0.00001694
     atom   51 type  1   force =    -0.00000782   -0.00000782    0.00000782
     atom   52 type  1   force =    -0.00001677   -0.00001677    0.00000000
     atom   53 type  1   force =    -0.00000782   -0.00000782   -0.00000782
     atom   54 type  1   force =    -0.00001694   -0.00001694   -0.00001694

     Total force =     0.000022     Total SCF correction =     0.000152
     SCF correction compared to forces is large: reduce conv_thr to get better values

     Computing stress (Cartesian axis) and pressure

          total   stress  (Ry/bohr**3)                   (kbar)     P=     -243.86
  -0.00165773   0.00000000   0.00000000         -243.86        0.00        0.00
   0.00000000  -0.00165773   0.00000000            0.00     -243.86        0.00
   0.00000000   0.00000000  -0.00165773            0.00        0.00     -243.86

     kinetic stress (kbar)  95345.56      0.00      0.00
                                0.00  95345.56      0.00
                                0.00      0.00  95345.56

     local   stress (kbar)  12075.47      0.00      0.00
                                0.00  12075.47      0.00
                                0.00      0.00  12075.47

     nonloc. stress (kbar) -26204.31      0.00      0.00
                                0.00 -26204.31      0.00
                                0.00      0.00 -26204.31

     hartree stress (kbar)  40675.87      0.00     -0.00
                                0.00  40675.87     -0.00
                               -0.00     -0.00  40675.87

     exc-cor stress (kbar) -13632.95      0.00      0.00
                                0.00 -13632.95      0.00
                                0.00      0.00 -13632.95

     corecor stress (kbar)  -2623.57      0.00      0.00
                                0.00  -2623.57      0.00
                                0.00      0.00  -2623.57

     ewald   stress (kbar)-105879.93      0.00      0.00
                                0.00-105879.93     -0.00
                                0.00     -0.00-105879.93

     hubbard stress (kbar)      0.00      0.00      0.00
                                0.00      0.00      0.00
                                0.00      0.00      0.00

     DFT-D   stress (kbar)      0.00      0.00      0.00
                                0.00      0.00      0.00
                                0.00      0.00      0.00

     XDM     stress (kbar)      0.00      0.00      0.00
                                0.00      0.00      0.00
                                0.00      0.00      0.00

     dft-nl  stress (kbar)      0.00      0.00      0.00
                                0.00      0.00      0.00
                                0.00      0.00      0.00

     TS-vdW  stress (kbar)      0.00      0.00      0.00
                                0.00      0.00      0.00
                                0.00      0.00      0.00

     MDB     stress (kbar)      0.00      0.00      0.00
                                0.00      0.00      0.00
                                0.00      0.00      0.00

     3D-RISM stress (kbar)      0.00      0.00      0.00
                                0.00      0.00      0.00
                                0.00      0.00      0.00

     BFGS Geometry Optimization
     Energy error            =      0.0E+00 Ry
     Gradient error          =      4.6E-06 Ry/Bohr

     bfgs converged in   1 scf cycles and   0 bfgs steps
     (criteria: energy <  1.0E-04 Ry, force <  1.0E-03 Ry/Bohr)

     End of BFGS Geometry Optimization

     Final energy             =  -17778.2581626809 Ry
Begin final coordinates

ATOMIC_POSITIONS (angstrom)
Fe               0.0000000000        0.0000000000        0.0000000000
Fe               1.4340500000        1.4340500000        1.4340500000
Fe               0.0000000000        0.0000000000        2.8681000000
Fe               1.4340500000        1.4340500000        4.3021500000
Fe               0.0000000000        0.0000000000        5.7362000000
Fe               1.4340500000        1.4340500000        7.1702500000
Fe               0.0000000000        2.8681000000        0.0000000000
Fe               1.4340500000        4.3021500000        1.4340500000
Fe               0.0000000000        2.8681000000        2.8681000000
Fe               1.4340500000        4.3021500000        4.3021500000
Fe               0.0000000000        2.8681000000        5.7362000000
Fe               1.4340500000        4.3021500000        7.1702500000
Fe               0.0000000000        5.7362000000        0.0000000000
Fe               1.4340500000        7.1702500000        1.4340500000
Fe               0.0000000000        5.7362000000        2.8681000000
Fe               1.4340500000        7.1702500000        4.3021500000
Fe               0.0000000000        5.7362000000        5.7362000000
Fe               1.4340500000        7.1702500000        7.1702500000
Fe               2.8681000000        0.0000000000        0.0000000000
Fe               4.3021500000        1.4340500000        1.4340500000
Fe               2.8681000000        0.0000000000        2.8681000000
Fe               4.3021500000        1.4340500000        4.3021500000
Fe               2.8681000000        0.0000000000        5.7362000000
Fe               4.3021500000        1.4340500000        7.1702500000
Fe               2.8681000000        2.8681000000        0.0000000000
Fe               4.3021500000        4.3021500000        1.4340500000
Fe               2.8681000000        2.8681000000        2.8681000000
Fe               4.3021500000        4.3021500000        4.3021500000
Fe               2.8681000000        2.8681000000        5.7362000000
Fe               4.3021500000        4.3021500000        7.1702500000
Fe               2.8681000000        5.7362000000        0.0000000000
Fe               4.3021500000        7.1702500000        1.4340500000
Fe               2.8681000000        5.7362000000        2.8681000000
Fe               4.3021500000        7.1702500000        4.3021500000
Fe               2.8681000000        5.7362000000        5.7362000000
Fe               4.3021500000        7.1702500000        7.1702500000
Fe               5.7362000000        0.0000000000        0.0000000000
Fe               7.1702500000        1.4340500000        1.4340500000
Fe               5.7362000000        0.0000000000        2.8681000000
Fe               7.1702500000        1.4340500000        4.3021500000
Fe               5.7362000000        0.0000000000        5.7362000000
Fe               7.1702500000        1.4340500000        7.1702500000
Fe               5.7362000000        2.8681000000        0.0000000000
Fe               7.1702500000        4.3021500000        1.4340500000
Fe               5.7362000000        2.8681000000        2.8681000000
Fe               7.1702500000        4.3021500000        4.3021500000
Fe               5.7362000000        2.8681000000        5.7362000000
Fe               7.1702500000        4.3021500000        7.1702500000
Fe               5.7362000000        5.7362000000        0.0000000000
Fe               7.1702500000        7.1702500000        1.4340500000
Fe               5.7362000000        5.7362000000        2.8681000000
Fe               7.1702500000        7.1702500000        4.3021500000
Fe               5.7362000000        5.7362000000        5.7362000000
Fe               7.1702500000        7.1702500000        7.1702500000
End final coordinates

     Message from routine punch:
     Nothing written, as per user request (disk_io='none')

     General routines

     Parallel routines

     PAW routines

   This run was terminated on:  19: 5:22   3Jun2025

   JOB DONE.