     Program PWSCF v.7.3.1 starts on 29May2025 at 17:38: 6

     Waiting for input...
     Reading input from standard input

     Current dimensions of program PWSCF are:
     Max number of different atomic species (ntypx) = 10
     Max number of k-points (npk) =  40000
     Max angular momentum in pseudopotentials (lmaxx) =  4
     Message from routine setup:
     using ibrav=0 with symmetry is DISCOURAGED, use correct ibrav instead

     K-points division:     npool     =       8
     R & G space division:  proc/nbgrp/npool/nimage =      16
     Subspace diagonalization in iterative solution of the eigenvalue problem:
     one sub-group per band group will be used

     Using Slab Decomposition

     bravais-lattice index     =            0
     lattice parameter (alat)  =      16.2598  a.u.
     unit-cell volume          =    4298.7603 (a.u.)^3
     number of atoms/cell      =           53
     number of atomic types    =            1
     number of electrons       =       848.00
     number of Kohn-Sham states=          509
     kinetic-energy cutoff     =      90.0000  Ry
     charge density cutoff     =    1080.0000  Ry
     scf convergence threshold =      1.0E-08
     mixing beta               =       0.2000
     number of iterations used =            8  plain     mixing
     Exchange-correlation= PBE
                           (   1   4   3   4   0   0   0)

     celldm(1)=  16.259770  celldm(2)=   0.000000  celldm(3)=   0.000000
     celldm(4)=   0.000000  celldm(5)=   0.000000  celldm(6)=   0.000000

     crystal axes: (cart. coord. in units of alat)
               a(1) = (   1.000000   0.000000   0.000000 )
               a(2) = (   0.000000   1.000000   0.000000 )
               a(3) = (   0.000000   0.000000   1.000000 )

     reciprocal axes: (cart. coord. in units 2 pi/alat)
               b(1) = (  1.000000  0.000000  0.000000 )
               b(2) = (  0.000000  1.000000  0.000000 )
               b(3) = (  0.000000  0.000000  1.000000 )

     PseudoPot. # 1 for Fe read from file:
     ./pseudo/Fe.pbe-spn-rrkjus_psl.0.2.1.UPF
     MD5 check sum: f9af58635850a145d9bd408d58feeb93
     Pseudo is Ultrasoft + core correction, Zval = 16.0
     Generated using "atomic" code by A. Dal Corso  v.5.0.2 svn rev. 9415
     Using radial grid of 1191 points,  6 beta functions with:
                l(1) =   0
                l(2) =   0
                l(3) =   1
                l(4) =   1
                l(5) =   2
                l(6) =   2
     Q(r) pseudized with 0 coefficients

     atomic species   valence    mass     pseudopotential
     Fe               16.00    55.84500     Fe( 1.00)

     48 Sym. Ops., with inversion, found (42 have fractional translation)

                                    s                        frac. trans.

      isym =  1     identity

 cryst.   s( 1) = (     1          0          0      )
                  (     0          1          0      )
                  (     0          0          1      )

 cart.    s( 1) = (  1.0000000  0.0000000  0.0000000 )
                  (  0.0000000  1.0000000  0.0000000 )
                  (  0.0000000  0.0000000  1.0000000 )

      isym =  2     180 deg rotation - cart. axis [0,0,1]

 cryst.   s( 2) = (    -1          0          0      )    f =(  0.3333333 )
                  (     0         -1          0      )       (  0.3333333 )
                  (     0          0          1      )       (  0.0000000 )

 cart.    s( 2) = ( -1.0000000  0.0000000  0.0000000 )    f =(  0.3333333 )
                  (  0.0000000 -1.0000000  0.0000000 )       (  0.3333333 )
                  (  0.0000000  0.0000000  1.0000000 )       (  0.0000000 )

[...]

 cryst.   s( 9) = (     0          0          1      )    f =(  0.0000000 )
                  (     0         -1          0      )       (  0.3333333 )
                  (     1          0          0      )       (  0.0000000 )

 cart.    s( 9) = (  0.0000000  0.0000000  1.0000000 )    f =(  0.0000000 )
                  (  0.0000000 -1.0000000  0.0000000 )       (  0.3333333 )
                  (  1.0000000  0.0000000  0.0000000 )       (  0.0000000 )

[...]

 cryst.   s(10) = (     0          0         -1      )    f =(  0.3333333 )
                  (     0         -1          0      )       (  0.3333333 )
                  (    -1          0          0      )       (  0.3333333 )

 cart.    s(10) = (  0.0000000  0.0000000 -1.0000000 )    f =(  0.3333333 )
                  (  0.0000000 -1.0000000  0.0000000 )       (  0.3333333 )
                  ( -1.0000000  0.0000000  0.0000000 )       (  0.3333333 )

[...]

 cryst.   s(17) = (     0          0          1      )
                  (     1          0          0      )
                  (     0          1          0      )

 cart.    s(17) = (  0.0000000  1.0000000  0.0000000 )
                  (  0.0000000  0.0000000  1.0000000 )
                  (  1.0000000  0.0000000  0.0000000 )

[...]

      isym = 24     120 deg rotation - cart. axis [-1,-1,1]

[...]

      isym = 25     inversion

[...]

      isym = 26     inv. 180 deg rotation - cart. axis [0,0,1]

[...]

 cryst.   s(38) = (     1          0          0      )
                  (     0          0          1      )
                  (     0          1          0      )

 cart.    s(38) = (  1.0000000  0.0000000  0.0000000 )
                  (  0.0000000  0.0000000  1.0000000 )
                  (  0.0000000  1.0000000  0.0000000 )

[...]

      isym = 48     inv. 120 deg rotation - cart. axis [-1,-1,1]

 cryst.   s(48) = (     0         -1          0      )    f =(  0.0000000 )
                  (     0          0          1      )       (  0.3333333 )
                  (     1          0          0      )       (  0.0000000 )

 cart.    s(48) = (  0.0000000  0.0000000  1.0000000 )    f =(  0.0000000 )
                  ( -1.0000000  0.0000000  0.0000000 )       (  0.3333333 )
                  (  0.0000000  1.0000000  0.0000000 )       (  0.0000000 )

   Cartesian axes

     site n.     atom                  positions (alat units)
         1        Fe     tau(   1) = (   0.0293862   0.0293862   0.0293862  )
         2        Fe     tau(   2) = (   0.1963820   0.1963820   0.1963820  )
         3        Fe     tau(   3) = (   0.0230014   0.0230014   0.3333333  )
         4        Fe     tau(   4) = (   0.1963820   0.1963820   0.4702847  )
         5        Fe     tau(   5) = (   0.0293862   0.0293862   0.6372804  )
         6        Fe     tau(   6) = (   0.1508598   0.1508598   0.8333333  )
         7        Fe     tau(   7) = (   0.0230014   0.3333333   0.0230014  )
         8        Fe     tau(   8) = (   0.1963820   0.4702847   0.1963820  )
         9        Fe     tau(   9) = (  -0.0129240   0.3333333   0.3333333  )
        10        Fe     tau(  10) = (   0.1963820   0.4702847   0.4702847  )
        11        Fe     tau(  11) = (   0.0230014   0.3333333   0.6436652  )
        12        Fe     tau(  12) = (   0.1508598   0.5158069   0.8333333  )
        13        Fe     tau(  13) = (   0.0293862   0.6372804   0.0293862  )
        14        Fe     tau(  14) = (   0.1508598   0.8333333   0.1508598  )
        15        Fe     tau(  15) = (   0.0230014   0.6436652   0.3333333  )
        16        Fe     tau(  16) = (   0.1508598   0.8333333   0.5158069  )
        17        Fe     tau(  17) = (   0.0293862   0.6372804   0.6372804  )
        18        Fe     tau(  18) = (   0.1577221   0.8333333   0.8333333  )
        19        Fe     tau(  19) = (   0.3333333   0.0230014   0.0230014  )
        20        Fe     tau(  20) = (   0.4702847   0.1963820   0.1963820  )
        21        Fe     tau(  21) = (   0.3333333  -0.0129240   0.3333333  )
        22        Fe     tau(  22) = (   0.4702847   0.1963820   0.4702847  )
        23        Fe     tau(  23) = (   0.3333333   0.0230014   0.6436652  )
        24        Fe     tau(  24) = (   0.5158069   0.1508598   0.8333333  )
        25        Fe     tau(  25) = (   0.3333333   0.3333333  -0.0129240  )
        26        Fe     tau(  26) = (   0.4702847   0.4702847   0.1963820  )
        27        Fe     tau(  27) = (   0.4702847   0.4702847   0.4702847  )
        28        Fe     tau(  28) = (   0.3333333   0.3333333   0.6795907  )
        29        Fe     tau(  29) = (   0.5158069   0.5158069   0.8333333  )
        30        Fe     tau(  30) = (   0.3333333   0.6436652   0.0230014  )
        31        Fe     tau(  31) = (   0.5158069   0.8333333   0.1508598  )
        32        Fe     tau(  32) = (   0.3333333   0.6795907   0.3333333  )
        33        Fe     tau(  33) = (   0.5158069   0.8333333   0.5158069  )
        34        Fe     tau(  34) = (   0.3333333   0.6436652   0.6436652  )
        35        Fe     tau(  35) = (   0.5089446   0.8333333   0.8333333  )
        36        Fe     tau(  36) = (   0.6372804   0.0293862   0.0293862  )
        37        Fe     tau(  37) = (   0.8333333   0.1508598   0.1508598  )
        38        Fe     tau(  38) = (   0.6436652   0.0230014   0.3333333  )
        39        Fe     tau(  39) = (   0.8333333   0.1508598   0.5158069  )
        40        Fe     tau(  40) = (   0.6372804   0.0293862   0.6372804  )
        41        Fe     tau(  41) = (   0.8333333   0.1577221   0.8333333  )
        42        Fe     tau(  42) = (   0.6436652   0.3333333   0.0230014  )
        43        Fe     tau(  43) = (   0.8333333   0.5158069   0.1508598  )
        44        Fe     tau(  44) = (   0.6795907   0.3333333   0.3333333  )
        45        Fe     tau(  45) = (   0.8333333   0.5158069   0.5158069  )
        46        Fe     tau(  46) = (   0.6436652   0.3333333   0.6436652  )
        47        Fe     tau(  47) = (   0.8333333   0.5089446   0.8333333  )
        48        Fe     tau(  48) = (   0.6372804   0.6372804   0.0293862  )
        49        Fe     tau(  49) = (   0.8333333   0.8333333   0.1577221  )
        50        Fe     tau(  50) = (   0.6436652   0.6436652   0.3333333  )
        51        Fe     tau(  51) = (   0.8333333   0.8333333   0.5089446  )
        52        Fe     tau(  52) = (   0.6372804   0.6372804   0.6372804  )
        53        Fe     tau(  53) = (   0.8333333   0.8333333   0.8333333  )

   Crystallographic axes

     site n.     atom                  positions (cryst. coord.)
         1        Fe     tau(   1) = (  0.0293862  0.0293862  0.0293862  )
         2        Fe     tau(   2) = (  0.1963820  0.1963820  0.1963820  )
         3        Fe     tau(   3) = (  0.0230014  0.0230014  0.3333333  )
         4        Fe     tau(   4) = (  0.1963820  0.1963820  0.4702847  )
         5        Fe     tau(   5) = (  0.0293862  0.0293862  0.6372804  )
         6        Fe     tau(   6) = (  0.1508598  0.1508598  0.8333333  )
         7        Fe     tau(   7) = (  0.0230014  0.3333333  0.0230014  )
         8        Fe     tau(   8) = (  0.1963820  0.4702847  0.1963820  )
         9        Fe     tau(   9) = ( -0.0129240  0.3333333  0.3333333  )
        10        Fe     tau(  10) = (  0.1963820  0.4702847  0.4702847  )
        11        Fe     tau(  11) = (  0.0230014  0.3333333  0.6436652  )
        12        Fe     tau(  12) = (  0.1508598  0.5158069  0.8333333  )
[...]
     atom   34 type  1   force =     0.00000000  -15.52918547  -15.52918547
     atom   35 type  1   force =    -1.91351146    0.00000000   -0.00000000
     atom   36 type  1   force =   -13.19304151   13.19304151   13.19304151
     atom   37 type  1   force =    -0.00000000    1.93342081    1.93342081
     atom   38 type  1   force =   -15.52918547   15.52918547    0.00000000
     atom   39 type  1   force =    -0.00000000    1.93342081   -1.93342081
     atom   40 type  1   force =   -13.19304151   13.19304151  -13.19304151
     atom   41 type  1   force =     0.00000000    1.91351146   -0.00000000
     atom   42 type  1   force =   -15.52918547    0.00000000   15.52918547
     atom   43 type  1   force =    -0.00000000   -1.93342081    1.93342081
     atom   44 type  1   force =   -16.54138407   -0.00000000    0.00000000
     atom   45 type  1   force =    -0.00000000   -1.93342081   -1.93342081
     atom   46 type  1   force =   -15.52918547    0.00000000  -15.52918547
     atom   47 type  1   force =    -0.00000000   -1.91351146   -0.00000000
     atom   48 type  1   force =   -13.19304151  -13.19304151   13.19304151
     atom   49 type  1   force =     0.00000000    0.00000000    1.91351146
     atom   50 type  1   force =   -15.52918547  -15.52918547    0.00000000
     atom   51 type  1   force =    -0.00000000    0.00000000   -1.91351146
     atom   52 type  1   force =   -13.19304151  -13.19304151  -13.19304151
     atom   53 type  1   force =    -0.00000000   -0.00000000   -0.00000000
     The core correction contribution to forces
     atom    1 type  1   force =    -0.00249885   -0.00249885   -0.00249885
     atom    2 type  1   force =    -0.00256497   -0.00256497   -0.00256497
     atom    3 type  1   force =    -0.00330696   -0.00330696    0.00000000
     atom    4 type  1   force =    -0.00256497   -0.00256497    0.00256497
     atom    5 type  1   force =    -0.00249885   -0.00249885    0.00249885
     atom    6 type  1   force =     0.00411020    0.00411020    0.00000000
     atom    7 type  1   force =    -0.00330696   -0.00000000   -0.00330696
     atom    8 type  1   force =    -0.00256497    0.00256497   -0.00256497
     atom    9 type  1   force =    -0.00301023   -0.00000000    0.00000000
     atom   10 type  1   force =    -0.00256497    0.00256497    0.00256497
     atom   11 type  1   force =    -0.00330696   -0.00000000    0.00330696
     atom   12 type  1   force =     0.00411020   -0.00411020    0.00000000
     atom   13 type  1   force =    -0.00249885    0.00249885   -0.00249885
     atom   14 type  1   force =     0.00411020    0.00000000    0.00411020
     atom   15 type  1   force =    -0.00330696    0.00330696    0.00000000
     atom   16 type  1   force =     0.00411020    0.00000000   -0.00411020
     atom   17 type  1   force =    -0.00249885    0.00249885    0.00249885
     atom   18 type  1   force =     0.00447362    0.00000000    0.00000000
     atom   19 type  1   force =    -0.00000000   -0.00330696   -0.00330696
     atom   20 type  1   force =     0.00256497   -0.00256497   -0.00256497
     atom   21 type  1   force =    -0.00000000   -0.00301023    0.00000000
     atom   22 type  1   force =     0.00256497   -0.00256497    0.00256497
     atom   23 type  1   force =    -0.00000000   -0.00330696    0.00330696
     atom   24 type  1   force =    -0.00411020    0.00411020    0.00000000
     atom   25 type  1   force =     0.00000000   -0.00000000   -0.00301023
     atom   26 type  1   force =     0.00256497    0.00256497   -0.00256497
     atom   27 type  1   force =     0.00256497    0.00256497    0.00256497
     atom   28 type  1   force =    -0.00000000   -0.00000000    0.00301023
     atom   29 type  1   force =    -0.00411020   -0.00411020   -0.00000000
     atom   30 type  1   force =     0.00000000    0.00330696   -0.00330696
     atom   31 type  1   force =    -0.00411020   -0.00000000    0.00411020
     atom   32 type  1   force =     0.00000000    0.00301023    0.00000000
     atom   33 type  1   force =    -0.00411020   -0.00000000   -0.00411020
     atom   34 type  1   force =     0.00000000    0.00330696    0.00330696
     atom   35 type  1   force =    -0.00447362   -0.00000000    0.00000000
     atom   36 type  1   force =     0.00249885   -0.00249885   -0.00249885
     atom   37 type  1   force =    -0.00000000    0.00411020    0.00411020
     atom   38 type  1   force =     0.00330696   -0.00330696    0.00000000
     atom   39 type  1   force =    -0.00000000    0.00411020   -0.00411020
     atom   40 type  1   force =     0.00249885   -0.00249885    0.00249885
     atom   41 type  1   force =     0.00000000    0.00447362    0.00000000
     atom   42 type  1   force =     0.00330696    0.00000000   -0.00330696
     atom   43 type  1   force =     0.00000000   -0.00411020    0.00411020
     atom   44 type  1   force =     0.00301023    0.00000000   -0.00000000
     atom   45 type  1   force =     0.00000000   -0.00411020   -0.00411020
     atom   46 type  1   force =     0.00330696    0.00000000    0.00330696
     atom   47 type  1   force =    -0.00000000   -0.00447362    0.00000000
     atom   48 type  1   force =     0.00249885    0.00249885   -0.00249885
     atom   49 type  1   force =     0.00000000    0.00000000    0.00447362
     atom   50 type  1   force =     0.00330696    0.00330696    0.00000000
     atom   51 type  1   force =     0.00000000    0.00000000   -0.00447362
     atom   52 type  1   force =     0.00249885    0.00249885    0.00249885
     atom   53 type  1   force =     0.00000000    0.00000000    0.00000000
     The Hubbard contrib.    to forces
     atom    1 type  1   force =     0.00000000    0.00000000    0.00000000
     atom    2 type  1   force =     0.00000000    0.00000000    0.00000000
     atom    3 type  1   force =     0.00000000    0.00000000    0.00000000
     atom    4 type  1   force =     0.00000000    0.00000000    0.00000000
     atom    5 type  1   force =     0.00000000    0.00000000    0.00000000
     atom    6 type  1   force =     0.00000000    0.00000000    0.00000000
     atom    7 type  1   force =     0.00000000    0.00000000    0.00000000
     atom    8 type  1   force =     0.00000000    0.00000000    0.00000000
     atom    9 type  1   force =     0.00000000    0.00000000    0.00000000
     atom   10 type  1   force =     0.00000000    0.00000000    0.00000000
     atom   11 type  1   force =     0.00000000    0.00000000    0.00000000
     atom   12 type  1   force =     0.00000000    0.00000000    0.00000000
     atom   13 type  1   force =     0.00000000    0.00000000    0.00000000
     atom   14 type  1   force =     0.00000000    0.00000000    0.00000000
     atom   15 type  1   force =     0.00000000    0.00000000    0.00000000
     atom   16 type  1   force =     0.00000000    0.00000000    0.00000000
     atom   17 type  1   force =     0.00000000    0.00000000    0.00000000
     atom   18 type  1   force =     0.00000000    0.00000000    0.00000000
     atom   19 type  1   force =     0.00000000    0.00000000    0.00000000
     atom   20 type  1   force =     0.00000000    0.00000000    0.00000000
     atom   21 type  1   force =     0.00000000    0.00000000    0.00000000
     atom   22 type  1   force =     0.00000000    0.00000000    0.00000000
     atom   23 type  1   force =     0.00000000    0.00000000    0.00000000
     atom   24 type  1   force =     0.00000000    0.00000000    0.00000000
     atom   25 type  1   force =     0.00000000    0.00000000    0.00000000
     atom   26 type  1   force =     0.00000000    0.00000000    0.00000000
     atom   27 type  1   force =     0.00000000    0.00000000    0.00000000
     atom   28 type  1   force =     0.00000000    0.00000000    0.00000000
     atom   29 type  1   force =     0.00000000    0.00000000    0.00000000
     atom   30 type  1   force =     0.00000000    0.00000000    0.00000000
     atom   31 type  1   force =     0.00000000    0.00000000    0.00000000
     atom   32 type  1   force =     0.00000000    0.00000000    0.00000000
     atom   33 type  1   force =     0.00000000    0.00000000    0.00000000
     atom   34 type  1   force =     0.00000000    0.00000000    0.00000000
     atom   35 type  1   force =     0.00000000    0.00000000    0.00000000
     atom   36 type  1   force =     0.00000000    0.00000000    0.00000000
     atom   37 type  1   force =     0.00000000    0.00000000    0.00000000
     atom   38 type  1   force =     0.00000000    0.00000000    0.00000000
     atom   39 type  1   force =     0.00000000    0.00000000    0.00000000
     atom   40 type  1   force =     0.00000000    0.00000000    0.00000000
     atom   41 type  1   force =     0.00000000    0.00000000    0.00000000
     atom   42 type  1   force =     0.00000000    0.00000000    0.00000000
     atom   43 type  1   force =     0.00000000    0.00000000    0.00000000
     atom   44 type  1   force =     0.00000000    0.00000000    0.00000000
     atom   45 type  1   force =     0.00000000    0.00000000    0.00000000
     atom   46 type  1   force =     0.00000000    0.00000000    0.00000000
     atom   47 type  1   force =     0.00000000    0.00000000    0.00000000
     atom   48 type  1   force =     0.00000000    0.00000000    0.00000000
     atom   49 type  1   force =     0.00000000    0.00000000    0.00000000
     atom   50 type  1   force =     0.00000000    0.00000000    0.00000000
     atom   51 type  1   force =     0.00000000    0.00000000    0.00000000
     atom   52 type  1   force =     0.00000000    0.00000000    0.00000000
     atom   53 type  1   force =     0.00000000    0.00000000    0.00000000
     The SCF correction term to forces
     atom    1 type  1   force =     0.00002067    0.00002067    0.00002067
     atom    2 type  1   force =     0.00002793    0.00002793    0.00002793
     atom    3 type  1   force =     0.00003069    0.00003069   -0.00000000
     atom    4 type  1   force =     0.00002793    0.00002793   -0.00002793
     atom    5 type  1   force =     0.00002067    0.00002067   -0.00002067
     atom    6 type  1   force =     0.00002955    0.00002955   -0.00000000
     atom    7 type  1   force =     0.00003069   -0.00000000    0.00003069
     atom    8 type  1   force =     0.00002793   -0.00002793    0.00002793
     atom    9 type  1   force =     0.00002382   -0.00000000   -0.00000000
     atom   10 type  1   force =     0.00002793   -0.00002793   -0.00002793
     atom   11 type  1   force =     0.00003069   -0.00000000   -0.00003069
     atom   12 type  1   force =     0.00002955   -0.00002955    0.00000000
     atom   13 type  1   force =     0.00002067   -0.00002067    0.00002067
     atom   14 type  1   force =     0.00002955   -0.00000000    0.00002955
     atom   15 type  1   force =     0.00003069   -0.00003069   -0.00000000
     atom   16 type  1   force =     0.00002955    0.00000000   -0.00002955
     atom   17 type  1   force =     0.00002067   -0.00002067   -0.00002067
     atom   18 type  1   force =     0.00002092    0.00000000    0.00000000
     atom   19 type  1   force =    -0.00000000    0.00003069    0.00003069
     atom   20 type  1   force =    -0.00002793    0.00002793    0.00002793
     atom   21 type  1   force =    -0.00000000    0.00002382   -0.00000000
     atom   22 type  1   force =    -0.00002793    0.00002793   -0.00002793
     atom   23 type  1   force =    -0.00000000    0.00003069   -0.00003069
     atom   24 type  1   force =    -0.00002955    0.00002955    0.00000000
     atom   25 type  1   force =    -0.00000000   -0.00000000    0.00002382
     atom   26 type  1   force =    -0.00002793   -0.00002793    0.00002793
     atom   27 type  1   force =    -0.00002793   -0.00002793   -0.00002793
     atom   28 type  1   force =     0.00000000    0.00000000   -0.00002382
     atom   29 type  1   force =    -0.00002955   -0.00002955    0.00000000
     atom   30 type  1   force =     0.00000000   -0.00003069    0.00003069
     atom   31 type  1   force =    -0.00002955    0.00000000    0.00002955
     atom   32 type  1   force =    -0.00000000   -0.00002382    0.00000000
     atom   33 type  1   force =    -0.00002955    0.00000000   -0.00002955
     atom   34 type  1   force =     0.00000000   -0.00003069   -0.00003069
     atom   35 type  1   force =    -0.00002092   -0.00000000    0.00000000
     atom   36 type  1   force =    -0.00002067    0.00002067    0.00002067
     atom   37 type  1   force =    -0.00000000    0.00002955    0.00002955
     atom   38 type  1   force =    -0.00003069    0.00003069    0.00000000
     atom   39 type  1   force =     0.00000000    0.00002955   -0.00002955
     atom   40 type  1   force =    -0.00002067    0.00002067   -0.00002067
     atom   41 type  1   force =     0.00000000    0.00002092    0.00000000
     atom   42 type  1   force =    -0.00003069    0.00000000    0.00003069
     atom   43 type  1   force =     0.00000000   -0.00002955    0.00002955
     atom   44 type  1   force =    -0.00002382    0.00000000    0.00000000
     atom   45 type  1   force =     0.00000000   -0.00002955   -0.00002955
     atom   46 type  1   force =    -0.00003069    0.00000000   -0.00003069
     atom   47 type  1   force =    -0.00000000   -0.00002092   -0.00000000
     atom   48 type  1   force =    -0.00002067   -0.00002067    0.00002067
     atom   49 type  1   force =    -0.00000000   -0.00000000    0.00002092
     atom   50 type  1   force =    -0.00003069   -0.00003069   -0.00000000
     atom   51 type  1   force =     0.00000000   -0.00000000   -0.00002092
     atom   52 type  1   force =    -0.00002067   -0.00002067   -0.00002067
     atom   53 type  1   force =     0.00000000   -0.00000000   -0.00000000

     Total force =     0.002988     Total SCF correction =     0.000280

     Computing stress (Cartesian axis) and pressure

          total   stress  (Ry/bohr**3)                   (kbar)     P=     -235.94
  -0.00160386   0.00000000   0.00000000         -235.94        0.00        0.00
   0.00000000  -0.00160386   0.00000000            0.00     -235.94        0.00
   0.00000000   0.00000000  -0.00160386            0.00        0.00     -235.94

     kinetic stress (kbar)  77434.75      0.00      0.00
                                0.00  77434.75      0.00
                                0.00      0.00  77434.75

     local   stress (kbar)  60597.39     -0.00     -0.00
                               -0.00  60597.39      0.00
                               -0.00      0.00  60597.39

     nonloc. stress (kbar) -60576.07      0.00      0.00
                                0.00 -60576.07      0.00
                                0.00      0.00 -60576.07

     hartree stress (kbar)  42118.00     -0.00     -0.00
                               -0.00  42118.00     -0.00
                               -0.00     -0.00  42118.00

     exc-cor stress (kbar)  -2353.24     -0.00     -0.00
                               -0.00  -2353.24     -0.00
                               -0.00     -0.00  -2353.24

     corecor stress (kbar) -15828.66      0.00      0.00
                                0.00 -15828.66      0.00
                                0.00      0.00 -15828.66

     ewald   stress (kbar)-101628.11      0.00     -0.00
                                0.00-101628.11     -0.00
                               -0.00     -0.00-101628.11

     hubbard stress (kbar)      0.00      0.00      0.00
                                0.00      0.00      0.00
                                0.00      0.00      0.00

     DFT-D   stress (kbar)      0.00      0.00      0.00
                                0.00      0.00      0.00
                                0.00      0.00      0.00

     XDM     stress (kbar)      0.00      0.00      0.00
                                0.00      0.00      0.00
                                0.00      0.00      0.00

     dft-nl  stress (kbar)      0.00      0.00      0.00
                                0.00      0.00      0.00
                                0.00      0.00      0.00

     TS-vdW  stress (kbar)      0.00      0.00      0.00
                                0.00      0.00      0.00
                                0.00      0.00      0.00

     MDB     stress (kbar)      0.00      0.00      0.00
                                0.00      0.00      0.00
                                0.00      0.00      0.00

     3D-RISM stress (kbar)      0.00      0.00      0.00
                                0.00      0.00      0.00
                                0.00      0.00      0.00

     Message from routine punch:
     Nothing written, as per user request (disk_io='none')

     General routines

     Parallel routines

   This run was terminated on:  18:45: 3  29May2025

   JOB DONE.