     Program PWSCF v.7.3.1 starts on 19May2025 at  6: 9: 7

     Waiting for input...
     Reading input from standard input

     Current dimensions of program PWSCF are:
     Max number of different atomic species (ntypx) = 10
     Max number of k-points (npk) =  40000
     Max angular momentum in pseudopotentials (lmaxx) =  4
     file Fe.pbe-spn-kjpaw_psl.1.0.0.UPF: wavefunction(s)  3P 3D renormalized

     K-points division:     npool     =      16
     R & G space division:  proc/nbgrp/npool/nimage =       8
     Subspace diagonalization in iterative solution of the eigenvalue problem:
     a serial algorithm will be used

     Using Slab Decomposition

     bravais-lattice index     =            3
     lattice parameter (alat)  =       5.4200  a.u.
     unit-cell volume          =      79.6100 (a.u.)^3
     number of atoms/cell      =            1
     number of atomic types    =            1
     number of electrons       =        16.00
     number of Kohn-Sham states=           12
     kinetic-energy cutoff     =      90.0000  Ry
     charge density cutoff     =    1080.0000  Ry
     scf convergence threshold =      1.0E-10
     mixing beta               =       0.2000
     number of iterations used =            8  plain     mixing
     Exchange-correlation= SLA  PW   PBX  PBC
                           (   1   4   3   4   0   0   0)

     celldm(1)=   5.420000  celldm(2)=   0.000000  celldm(3)=   0.000000
     celldm(4)=   0.000000  celldm(5)=   0.000000  celldm(6)=   0.000000

     crystal axes: (cart. coord. in units of alat)
               a(1) = (   0.500000   0.500000   0.500000 )
               a(2) = (  -0.500000   0.500000   0.500000 )
               a(3) = (  -0.500000  -0.500000   0.500000 )

     reciprocal axes: (cart. coord. in units 2 pi/alat)
               b(1) = (  1.000000  0.000000  1.000000 )
               b(2) = ( -1.000000  1.000000  0.000000 )
               b(3) = (  0.000000 -1.000000  1.000000 )

     PseudoPot. # 1 for Fe read from file:
     ../../../pseudopotentials/Fe.pbe-spn-kjpaw_psl.1.0.0.UPF
     MD5 check sum: fc81f059e5c5069939230b1155715ae8
     Pseudo is Projector augmented-wave + core cor, Zval = 16.0
     Generated using &quot;atomic&quot; code by A. Dal Corso  v.6.3
     Shape of augmentation charge: PSQ
     Using radial grid of 1191 points,  6 beta functions with:
                l(1) =   0
                l(2) =   0
                l(3) =   1
                l(4) =   1
                l(5) =   2
                l(6) =   2
     Q(r) pseudized with 0 coefficients

     atomic species   valence    mass     pseudopotential
     Fe               16.00    55.84500     Fe( 1.00)

     48 Sym. Ops., with inversion, found

                                    s                        frac. trans.

      isym =  1     identity

 cryst.   s( 1) = (     1          0          0      )
                  (     0          1          0      )
                  (     0          0          1      )

 cart.    s( 1) = (  1.0000000  0.0000000  0.0000000 )
                  (  0.0000000  1.0000000  0.0000000 )
                  (  0.0000000  0.0000000  1.0000000 )

      isym =  2     180 deg rotation - cart. axis [0,0,1]

[...]

 cryst.   s( 9) = (     1         -1          1      )
                  (     0         -1          0      )
                  (     0          0         -1      )

 cart.    s( 9) = (  0.0000000  0.0000000  1.0000000 )
                  (  0.0000000 -1.0000000  0.0000000 )
                  (  1.0000000  0.0000000  0.0000000 )

[...]

 cryst.   s(10) = (    -1          0          0      )
                  (     0          0          1      )
                  (     0          1          0      )

 cart.    s(10) = (  0.0000000  0.0000000 -1.0000000 )
                  (  0.0000000 -1.0000000  0.0000000 )
                  ( -1.0000000  0.0000000  0.0000000 )

[...]

      isym = 24     120 deg rotation - cart. axis [-1,-1,1]

[...]

      isym = 25     inversion

[...]

      isym = 26     inv. 180 deg rotation - cart. axis [0,0,1]

[...]

      isym = 48     inv. 120 deg rotation - cart. axis [-1,-1,1]

 cryst.   s(48) = (     1         -1          1      )
                  (     1          0          0      )
                  (     0          0         -1      )

 cart.    s(48) = (  0.0000000  0.0000000  1.0000000 )
                  ( -1.0000000  0.0000000  0.0000000 )
                  (  0.0000000  1.0000000  0.0000000 )

     point group O_h (m-3m)
     there are 10 classes
     the character table:

       E     8C3   3C2   6C4   6C2'  i     8S6   3s_h  6S4   6s_d
A_1g   1.00  1.00  1.00  1.00  1.00  1.00  1.00  1.00  1.00  1.00
A_2g   1.00  1.00  1.00 -1.00 -1.00  1.00  1.00  1.00 -1.00 -1.00
E_g    2.00 -1.00  2.00  0.00  0.00  2.00 -1.00  2.00  0.00  0.00
T_1g   3.00  0.00 -1.00  1.00 -1.00  3.00  0.00 -1.00  1.00 -1.00
T_2g   3.00  0.00 -1.00 -1.00  1.00  3.00  0.00 -1.00 -1.00  1.00
A_1u   1.00  1.00  1.00  1.00  1.00 -1.00 -1.00 -1.00 -1.00 -1.00
A_2u   1.00  1.00  1.00 -1.00 -1.00 -1.00 -1.00 -1.00  1.00  1.00
E_u    2.00 -1.00  2.00  0.00  0.00 -2.00  1.00 -2.00  0.00  0.00
T_1u   3.00  0.00 -1.00  1.00 -1.00 -3.00  0.00  1.00 -1.00  1.00
T_2u   3.00  0.00 -1.00 -1.00  1.00 -3.00  0.00  1.00  1.00 -1.00

     the symmetry operations in each class and the name of the first element:

     E        1
          identity
     8C3     17   19   20   18   24   21   22   23
          120 deg rotation - cart. axis [-1,-1,-1]
     3C2      2    4    3
          180 deg rotation - cart. axis [0,0,1]
     6C4      7    8   15   16   12   11
           90 deg rotation - cart. axis [0,0,-1]
     6C2'     5    6   14   13   10    9
          180 deg rotation - cart. axis [1,1,0]
     i       25
          inversion
     8S6     41   43   44   42   48   45   46   47
          inv. 120 deg rotation - cart. axis [-1,-1,-1]
     3s_h    26   28   27
          inv. 180 deg rotation - cart. axis [0,0,1]
     6S4     31   32   39   40   36   35
          inv.  90 deg rotation - cart. axis [0,0,-1]
     6s_d    29   30   38   37   34   33
          inv. 180 deg rotation - cart. axis [1,1,0]

   Cartesian axes

     site n.     atom                  positions (alat units)
         1        Fe     tau(   1) = (   0.0000000   0.0000000   0.0000000  )

   Crystallographic axes

     site n.     atom                  positions (cryst. coord.)
         1        Fe     tau(   1) = (  0.0000000  0.0000000  0.0000000  )

     number of k points=   145  Marzari-Vanderbilt smearing, width (Ry)=  0.0100
                       cart. coord. in units 2pi/alat
        k(    1) = (   0.0000000   0.0000000   0.0000000), wk =   0.0004883
        k(    2) = (   0.0000000  -0.0625000   0.0625000), wk =   0.0058594
        k(    3) = (   0.0000000  -0.1250000   0.1250000), wk =   0.0058594
        k(    4) = (   0.0000000  -0.1875000   0.1875000), wk =   0.0058594
        k(    5) = (   0.0000000  -0.2500000   0.2500000), wk =   0.0058594
        k(    6) = (   0.0000000  -0.3125000   0.3125000), wk =   0.0058594
        k(    7) = (   0.0000000  -0.3750000   0.3750000), wk =   0.0058594
        k(    8) = (   0.0000000  -0.4375000   0.4375000), wk =   0.0058594
        k(    9) = (   0.0000000   0.5000000  -0.5000000), wk =   0.0029297
        k(   10) = (  -0.0625000  -0.0625000   0.1250000), wk =   0.0117188
        k(   11) = (  -0.0625000  -0.1250000   0.1875000), wk =   0.0234375
        k(   12) = (  -0.0625000  -0.1875000   0.2500000), wk =   0.0234375
        k(   13) = (  -0.0625000  -0.2500000   0.3125000), wk =   0.0234375
        k(   14) = (  -0.0625000  -0.3125000   0.3750000), wk =   0.0234375
        k(   15) = (  -0.0625000  -0.3750000   0.4375000), wk =   0.0234375
        k(   16) = (  -0.0625000   0.5625000  -0.5000000), wk =   0.0234375
        k(   17) = (  -0.1250000  -0.1250000   0.2500000), wk =   0.0117188
        k(   18) = (  -0.1250000  -0.1875000   0.3125000), wk =   0.0234375
        k(   19) = (  -0.1250000  -0.2500000   0.3750000), wk =   0.0234375
        k(   20) = (  -0.1250000  -0.3125000   0.4375000), wk =   0.0234375
        k(   21) = (  -0.1250000   0.6250000  -0.5000000), wk =   0.0234375
        k(   22) = (  -0.1250000   0.5625000  -0.4375000), wk =   0.0117188
        k(   23) = (  -0.1875000  -0.1875000   0.3750000), wk =   0.0117188
        k(   24) = (  -0.1875000  -0.2500000   0.4375000), wk =   0.0234375
        k(   25) = (  -0.1875000   0.6875000  -0.5000000), wk =   0.0234375
        k(   26) = (  -0.1875000   0.6250000  -0.4375000), wk =   0.0234375
        k(   27) = (  -0.2500000   0.7500000  -0.5000000), wk =   0.0117188
        k(   28) = (  -0.2500000   0.6875000  -0.4375000), wk =   0.0234375
        k(   29) = (  -0.2500000   0.6250000  -0.3750000), wk =   0.0117188
        k(   30) = (  -0.3125000   0.6875000  -0.3750000), wk =   0.0117188
        k(   31) = (   0.0000000   0.0000000   0.1250000), wk =   0.0029297
        k(   32) = (   0.0000000  -0.0625000   0.1875000), wk =   0.0117188
        k(   33) = (   0.0000000  -0.1250000   0.2500000), wk =   0.0117188
        k(   34) = (   0.0000000  -0.1875000   0.3125000), wk =   0.0117188
        k(   35) = (   0.0000000  -0.2500000   0.3750000), wk =   0.0117188
        k(   36) = (   0.0000000  -0.3125000   0.4375000), wk =   0.0117188
        k(   37) = (   0.0000000  -0.3750000   0.5000000), wk =   0.0117188
        k(   38) = (   0.0000000   0.5625000  -0.4375000), wk =   0.0058594
        k(   39) = (  -0.0625000  -0.0625000   0.2500000), wk =   0.0117188
        k(   40) = (  -0.0625000  -0.1250000   0.3125000), wk =   0.0234375
        k(   41) = (  -0.0625000  -0.1875000   0.3750000), wk =   0.0234375
        k(   42) = (  -0.0625000  -0.2500000   0.4375000), wk =   0.0234375
        k(   43) = (  -0.0625000  -0.3125000   0.5000000), wk =   0.0234375
        k(   44) = (  -0.0625000   0.6250000  -0.4375000), wk =   0.0234375
        k(   45) = (  -0.1250000   0.1250000   0.1250000), wk =   0.0039062
        k(   46) = (  -0.1250000  -0.1250000   0.3750000), wk =   0.0117188
        k(   47) = (  -0.1250000  -0.1875000   0.4375000), wk =   0.0234375
        k(   48) = (  -0.1250000  -0.2500000   0.5000000), wk =   0.0234375
        k(   49) = (  -0.1250000   0.6875000  -0.4375000), wk =   0.0234375
        k(   50) = (  -0.1250000   0.6250000  -0.3750000), wk =   0.0117188
        k(   51) = (  -0.1875000   0.1875000   0.1250000), wk =   0.0117188
        k(   52) = (  -0.1875000  -0.1875000   0.5000000), wk =   0.0117188
        k(   53) = (  -0.1875000   0.7500000  -0.4375000), wk =   0.0234375
        k(   54) = (  -0.1875000   0.6875000  -0.3750000), wk =   0.0234375
        k(   55) = (  -0.2500000   0.2500000   0.1250000), wk =   0.0117188
        k(   56) = (  -0.2500000   0.1875000   0.1875000), wk =   0.0117188
        k(   57) = (  -0.2500000   0.7500000  -0.3750000), wk =   0.0117188
        k(   58) = (  -0.2500000   0.6875000  -0.3125000), wk =   0.0117188
        k(   59) = (  -0.3125000   0.3125000   0.1250000), wk =   0.0117188
        k(   60) = (  -0.3125000   0.2500000   0.1875000), wk =   0.0234375
[...]
        k(  131) = (   0.5000000  -0.5000000   0.5000000), wk =   0.0009766
        k(  132) = (   0.0000000   0.0000000   0.6250000), wk =   0.0029297
        k(  133) = (   0.0000000  -0.0625000   0.6875000), wk =   0.0117188
        k(  134) = (   0.0000000  -0.1250000   0.7500000), wk =   0.0117188
        k(  135) = (   0.0000000   0.8125000  -0.1875000), wk =   0.0058594
        k(  136) = (  -0.0625000  -0.0625000   0.7500000), wk =   0.0117188
        k(  137) = (  -0.0625000   0.8750000  -0.1875000), wk =   0.0234375
        k(  138) = (  -0.1250000   0.8750000  -0.1250000), wk =   0.0039062
        k(  139) = (   0.0000000   0.0000000   0.7500000), wk =   0.0029297
        k(  140) = (   0.0000000  -0.0625000   0.8125000), wk =   0.0117188
        k(  141) = (   0.0000000   0.8750000  -0.1250000), wk =   0.0058594
        k(  142) = (  -0.0625000   0.9375000  -0.1250000), wk =   0.0117188
        k(  143) = (   0.0000000   0.0000000   0.8750000), wk =   0.0029297
        k(  144) = (   0.0000000   0.9375000  -0.0625000), wk =   0.0058594
        k(  145) = (   0.0000000   0.0000000  -1.0000000), wk =   0.0004883

                       cryst. coord.
        k(    1) = (   0.0000000   0.0000000   0.0000000), wk =   0.0004883
        k(    2) = (   0.0000000   0.0000000   0.0625000), wk =   0.0058594
        k(    3) = (   0.0000000   0.0000000   0.1250000), wk =   0.0058594
        k(    4) = (   0.0000000   0.0000000   0.1875000), wk =   0.0058594
        k(    5) = (   0.0000000   0.0000000   0.2500000), wk =   0.0058594
        k(    6) = (   0.0000000   0.0000000   0.3125000), wk =   0.0058594
        k(    7) = (   0.0000000   0.0000000   0.3750000), wk =   0.0058594
        k(    8) = (   0.0000000   0.0000000   0.4375000), wk =   0.0058594
        k(    9) = (   0.0000000   0.0000000  -0.5000000), wk =   0.0029297
        k(   10) = (   0.0000000   0.0625000   0.1250000), wk =   0.0117188
        k(   11) = (   0.0000000   0.0625000   0.1875000), wk =   0.0234375
        k(   12) = (   0.0000000   0.0625000   0.2500000), wk =   0.0234375
        k(   13) = (   0.0000000   0.0625000   0.3125000), wk =   0.0234375
        k(   14) = (   0.0000000   0.0625000   0.3750000), wk =   0.0234375
        k(   15) = (   0.0000000   0.0625000   0.4375000), wk =   0.0234375
        k(   16) = (   0.0000000   0.0625000  -0.5000000), wk =   0.0234375
        k(   17) = (   0.0000000   0.1250000   0.2500000), wk =   0.0117188
        k(   18) = (   0.0000000   0.1250000   0.3125000), wk =   0.0234375
        k(   19) = (   0.0000000   0.1250000   0.3750000), wk =   0.0234375
        k(   20) = (   0.0000000   0.1250000   0.4375000), wk =   0.0234375
        k(   21) = (   0.0000000   0.1250000  -0.5000000), wk =   0.0234375
        k(   22) = (   0.0000000   0.1250000  -0.4375000), wk =   0.0117188
        k(   23) = (   0.0000000   0.1875000   0.3750000), wk =   0.0117188
        k(   24) = (   0.0000000   0.1875000   0.4375000), wk =   0.0234375
        k(   25) = (   0.0000000   0.1875000  -0.5000000), wk =   0.0234375
        k(   26) = (   0.0000000   0.1875000  -0.4375000), wk =   0.0234375
        k(   27) = (   0.0000000   0.2500000  -0.5000000), wk =   0.0117188
        k(   28) = (   0.0000000   0.2500000  -0.4375000), wk =   0.0234375
        k(   29) = (   0.0000000   0.2500000  -0.3750000), wk =   0.0117188
        k(   30) = (   0.0000000   0.3125000  -0.3750000), wk =   0.0117188
        k(   31) = (   0.0625000   0.0625000   0.0625000), wk =   0.0029297
        k(   32) = (   0.0625000   0.0625000   0.1250000), wk =   0.0117188
        k(   33) = (   0.0625000   0.0625000   0.1875000), wk =   0.0117188
        k(   34) = (   0.0625000   0.0625000   0.2500000), wk =   0.0117188
        k(   35) = (   0.0625000   0.0625000   0.3125000), wk =   0.0117188
        k(   36) = (   0.0625000   0.0625000   0.3750000), wk =   0.0117188
        k(   37) = (   0.0625000   0.0625000   0.4375000), wk =   0.0117188
        k(   38) = (   0.0625000   0.0625000  -0.5000000), wk =   0.0058594
        k(   39) = (   0.0625000   0.1250000   0.1875000), wk =   0.0117188
        k(   40) = (   0.0625000   0.1250000   0.2500000), wk =   0.0234375
        k(   41) = (   0.0625000   0.1250000   0.3125000), wk =   0.0234375
        k(   42) = (   0.0625000   0.1250000   0.3750000), wk =   0.0234375
        k(   43) = (   0.0625000   0.1250000   0.4375000), wk =   0.0234375
        k(   44) = (   0.0625000   0.1250000  -0.5000000), wk =   0.0234375
        k(   45) = (   0.0625000   0.1875000   0.0625000), wk =   0.0039062
        k(   46) = (   0.0625000   0.1875000   0.3125000), wk =   0.0117188
        k(   47) = (   0.0625000   0.1875000   0.3750000), wk =   0.0234375
        k(   48) = (   0.0625000   0.1875000   0.4375000), wk =   0.0234375
        k(   49) = (   0.0625000   0.1875000  -0.5000000), wk =   0.0234375
        k(   50) = (   0.0625000   0.1875000  -0.4375000), wk =   0.0117188
        k(   51) = (   0.0625000   0.2500000   0.0625000), wk =   0.0117188
        k(   52) = (   0.0625000   0.2500000   0.4375000), wk =   0.0117188
        k(   53) = (   0.0625000   0.2500000  -0.5000000), wk =   0.0234375
        k(   54) = (   0.0625000   0.2500000  -0.4375000), wk =   0.0234375
        k(   55) = (   0.0625000   0.3125000   0.0625000), wk =   0.0117188
        k(   56) = (   0.0625000   0.3125000   0.1250000), wk =   0.0117188
        k(   57) = (   0.0625000   0.3125000  -0.4375000), wk =   0.0117188
        k(   58) = (   0.0625000   0.3125000  -0.3750000), wk =   0.0117188
        k(   59) = (   0.0625000   0.3750000   0.0625000), wk =   0.0117188
        k(   60) = (   0.0625000   0.3750000   0.1250000), wk =   0.0234375
[...]
        k(  131) = (   0.2500000  -0.2500000   0.2500000), wk =   0.0009766
        k(  132) = (   0.3125000   0.3125000   0.3125000), wk =   0.0029297
        k(  133) = (   0.3125000   0.3125000   0.3750000), wk =   0.0117188
        k(  134) = (   0.3125000   0.3125000   0.4375000), wk =   0.0117188
        k(  135) = (   0.3125000   0.3125000  -0.5000000), wk =   0.0058594
        k(  136) = (   0.3125000   0.3750000   0.4375000), wk =   0.0117188
        k(  137) = (   0.3125000   0.3750000  -0.5000000), wk =   0.0234375
        k(  138) = (   0.3125000   0.4375000  -0.4375000), wk =   0.0039062
        k(  139) = (   0.3750000   0.3750000   0.3750000), wk =   0.0029297
        k(  140) = (   0.3750000   0.3750000   0.4375000), wk =   0.0117188
        k(  141) = (   0.3750000   0.3750000  -0.5000000), wk =   0.0058594
        k(  142) = (   0.3750000   0.4375000  -0.5000000), wk =   0.0117188
        k(  143) = (   0.4375000   0.4375000   0.4375000), wk =   0.0029297
        k(  144) = (   0.4375000   0.4375000  -0.5000000), wk =   0.0058594
        k(  145) = (  -0.5000000  -0.5000000  -0.5000000), wk =   0.0004883

     Initial potential from superposition of free atoms

     starting charge      15.9996, renormalised to      16.0000
     Starting wfcs are   10 randomized atomic wfcs +    2 random wfcs
     Checking if some PAW data can be deallocated...

     Self-consistent Calculation

     iteration #  1     ecut=    90.00 Ry     beta= 0.20
     Davidson diagonalization with overlap

     ethr =  1.00E-02,  avg # of iterations =  3.3

     Threshold (ethr) on eigenvalues was too large:
     Diagonalizing with lowered threshold

     Davidson diagonalization with overlap

[...]

     total energy              =    -329.22344505 Ry
     estimated scf accuracy    <       0.03564464 Ry

[...]

     total energy              =    -329.22697367 Ry
     estimated scf accuracy    <          4.3E-10 Ry

     iteration # 12     ecut=    90.00 Ry     beta= 0.20
     Davidson diagonalization with overlap

     ethr =  2.69E-12,  avg # of iterations =  2.0

     End of self-consistent calculation

          k = 0.0000 0.0000 0.0000 (  1157 PWs)   bands (ev):

   -69.5459 -35.3828 -35.3828 -35.3828   9.2111  16.0140  16.0140  16.0140
    17.5124  17.5124  41.5283  41.5283

     occupation numbers
     1.0000   1.0000   1.0000   1.0000   1.0000   1.0000   1.0000   1.0000
     0.6140   0.6140   0.0000   0.0000

[...]

          k =-0.0625-0.0625 0.1250 (  1139 PWs)   bands (ev):

[...]

          k =-0.0625 0.9375-0.1250 (  1156 PWs)   bands (ev):

[...]

          k = 0.0000 0.0000-1.0000 (  1144 PWs)   bands (ev):

   -69.4252 -35.6547 -35.6547 -35.6547  13.5818  13.5818  18.4260  18.4260
    18.4260  27.1518  27.1518  27.1518

     occupation numbers
     1.0000   1.0000   1.0000   1.0000   1.0000   1.0000   0.0000   0.0000
     0.0000   0.0000   0.0000   0.0000

     the Fermi energy is    17.5521 ev

!    total energy              =    -329.22697368 Ry
     total all-electron energy =     -2545.523507 Ry
     estimated scf accuracy    <          6.5E-13 Ry
     smearing contrib. (-TS)   =      -0.00029312 Ry
     internal energy E=F+TS    =    -329.22668056 Ry

     The total energy is F=E-TS. E is the sum of the following terms:
     one-electron contribution =    -112.98917479 Ry
     hartree contribution      =      66.03889075 Ry
     xc contribution           =     -27.58793622 Ry
     ewald contribution        =    -171.88999319 Ry
     one-center paw contrib.   =     -82.79846710 Ry
      -> PAW hartree energy AE =     182.46824417 Ry
      -> PAW hartree energy PS =    -181.17436177 Ry
      -> PAW xc energy AE      =    -109.99837942 Ry
      -> PAW xc energy PS      =      25.90602992 Ry
      -> total E_H with PAW    =      67.33277314 Ry
      -> total E_XC with PAW   =    -111.68028572 Ry

     convergence has been achieved in  12 iterations

     Forces acting on atoms (cartesian axes, Ry/au):

     atom    1 type  1   force =     0.00000000    0.00000000    0.00000000
     The non-local contrib.  to forces
     atom    1 type  1   force =     0.00000000   -0.00000000    0.00000000
     The ionic contribution  to forces
     atom    1 type  1   force =    -0.00000000   -0.00000000   -0.00000000
     The local contribution  to forces
     atom    1 type  1   force =    -0.00000000   -0.00000000    0.00000000
     The core correction contribution to forces
     atom    1 type  1   force =     0.00000000    0.00000000   -0.00000000
     The Hubbard contrib.    to forces
     atom    1 type  1   force =     0.00000000    0.00000000    0.00000000
     The SCF correction term to forces
     atom    1 type  1   force =     0.00000000    0.00000000   -0.00000000

     Total force =     0.000000     Total SCF correction =     0.000000

     Computing stress (Cartesian axis) and pressure

          total   stress  (Ry/bohr**3)                   (kbar)     P=     -243.50
  -0.00165527   0.00000000  -0.00000000         -243.50        0.00       -0.00
   0.00000000  -0.00165527   0.00000000            0.00     -243.50        0.00
  -0.00000000   0.00000000  -0.00165527           -0.00        0.00     -243.50

     kinetic stress (kbar)  95342.93      0.00     -0.00
                                0.00  95342.93      0.00
                               -0.00      0.00  95342.93

     local   stress (kbar)  12072.07     -0.00     -0.00
                               -0.00  12072.07      0.00
                               -0.00      0.00  12072.07

     nonloc. stress (kbar) -26204.67      0.00     -0.00
                                0.00 -26204.67      0.00
                               -0.00      0.00 -26204.67

     hartree stress (kbar)  40676.01      0.00      0.00
                                0.00  40676.01     -0.00
                                0.00     -0.00  40676.01

     exc-cor stress (kbar) -13632.41      0.00      0.00
                                0.00 -13632.41      0.00
                                0.00      0.00 -13632.41

     corecor stress (kbar)  -2623.47      0.00      0.00
                                0.00  -2623.47     -0.00
                                0.00     -0.00  -2623.47

     ewald   stress (kbar)-105873.96      0.00      0.00
                                0.00-105873.96      0.00
                                0.00      0.00-105873.96

     hubbard stress (kbar)      0.00      0.00      0.00
                                0.00      0.00      0.00
                                0.00      0.00      0.00

     DFT-D   stress (kbar)      0.00      0.00      0.00
                                0.00      0.00      0.00
                                0.00      0.00      0.00

     XDM     stress (kbar)      0.00      0.00      0.00
                                0.00      0.00      0.00
                                0.00      0.00      0.00

     dft-nl  stress (kbar)      0.00      0.00      0.00
                                0.00      0.00      0.00
                                0.00      0.00      0.00

     TS-vdW  stress (kbar)      0.00      0.00      0.00
                                0.00      0.00      0.00
                                0.00      0.00      0.00

     MDB     stress (kbar)      0.00      0.00      0.00
                                0.00      0.00      0.00
                                0.00      0.00      0.00

     3D-RISM stress (kbar)      0.00      0.00      0.00
                                0.00      0.00      0.00
                                0.00      0.00      0.00

     Writing all to output data dir ./tmp/fe_bcc_nm.save/ :
     XML data file, charge density, pseudopotentials, collected wavefunctions

     General routines

     Parallel routines

     PAW routines

   This run was terminated on:   6: 9:12  19May2025

   JOB DONE.